 vasp.6.4.3 19Mar24 (build Jun 26 2024 13:02:28) complex

 executed on             LinuxIFC date 2025.08.08  18:26:07

 INCAR:
   ENCUT = 315.4788
   IBRION = -1
   ISMEAR = 0
   ISYM = 2
   LCHARG = True
   LWAVE = True
   SIGMA = 0.05
   SYSTEM = Mo

 POTCAR:  PAW_PBE Mo_sv 02Feb2006
|           W    W    AA    RRRRR   N    N  II  N    N   GGGG   !!!           |
|           W    W   A  A   R    R  NN   N  II  NN   N  G    G  !!!           |
|           W    W  A    A  R    R  N N  N  II  N N  N  G       !!!           |
|           W WW W  AAAAAA  RRRRR   N  N N  II  N  N N  G  GGG   !            |
|           WW  WW  A    A  R   R   N   NN  II  N   NN  G    G                |
|           W    W  A    A  R    R  N    N  II  N    N   GGGG   !!!           |
|     For optimal performance we recommend to set                             |
|       NCORE = 2 up to number-of-cores-per-socket                            |
|     This setting can greatly improve the performance of VASP for DFT.       |
|     The default, NCORE=1 might be grossly inefficient on modern             |
|     multi-core architectures or massively parallel machines. Do your        |
|     Unfortunately you need to use the default for GW and RPA                |
|     calculations (for HF NCORE is supported but not extensively tested      |
|     yet).                                                                   |

 POTCAR:  PAW_PBE Mo_sv 02Feb2006
   VRHFIN =Mo: 4p5s4d

   TITEL  = PAW_PBE Mo_sv 02Feb2006
   POMASS =   95.940; ZVAL   =   14.000    mass and valenz
   ENMAX  =  242.676; ENMIN  =  182.007 eV

PAW_PBE Mo_sv 02Feb2006                 :

 POSCAR: Mo2
  positions in direct lattice

 exchange-correlation table for PE
   RHO(1)=    0.500       N(1)  =     2000
   RHO(2)=  100.500       N(2)  =     4000

 ion  position               nearest neighbor table
   1  0.000  0.000  0.000-   2 2.74   2 2.74   2 2.74   2 2.74   2 2.74   2 2.74   2 2.74   2 2.74

   2  0.500  0.500  0.500-   1 2.74   1 2.74   1 2.74   1 2.74   1 2.74   1 2.74   1 2.74   1 2.74

  LATTYP: Found a simple cubic cell.
 ALAT       =     3.1693000000

  Lattice vectors:

 A1 = (   3.1693000000,   0.0000000000,   0.0000000000)
 A2 = (   0.0000000000,   3.1693000000,   0.0000000000)
 A3 = (   0.0000000000,   0.0000000000,   3.1693000000)

Analysis of symmetry for initial positions (statically):
 Subroutine PRICEL returns following result:

  LATTYP: Found a body centered cubic cell.
 ALAT       =     3.1693000000

[...]

   2 primitive cells build up your supercell.

 Routine SETGRP: Setting up the symmetry group for a
 simple cubic supercell.

 Subroutine GETGRP returns: Found 48 space group operations
 (whereof 48 operations were pure point group operations)
 out of a pool of 48 trial point group operations.

The static configuration has the point symmetry O_h .

Analysis of symmetry for dynamics (positions and initial velocities):
 Subroutine PRICEL returns following result:

  LATTYP: Found a body centered cubic cell.
 ALAT       =     3.1693000000

  Lattice vectors:

 A1 = (   1.5846500000,   1.5846500000,  -1.5846500000)
 A2 = (  -1.5846500000,   1.5846500000,   1.5846500000)
 A3 = (   1.5846500000,  -1.5846500000,   1.5846500000)

   2 primitive cells build up your supercell.

 Routine SETGRP: Setting up the symmetry group for a
 simple cubic supercell.

 Subroutine GETGRP returns: Found 48 space group operations
 (whereof 48 operations were pure point group operations)
 out of a pool of 48 trial point group operations.

The dynamic configuration has the point symmetry O_h .

 Subroutine INISYM returns: Found 48 space group operations
 (whereof 48 operations are pure point group operations),
 and found     2 'primitive' translations

                                     Primitive cell

  volume of cell :      15.9170

  direct lattice vectors                    reciprocal lattice vectors
     1.584650000  1.584650000 -1.584650000     0.315527088  0.315527088  0.000000000
    -1.584650000  1.584650000  1.584650000    -0.000000000  0.315527088  0.315527088
     1.584650000 -1.584650000  1.584650000     0.315527088 -0.000000000  0.315527088

  length of vectors
     2.744694312  2.744694312  2.744694312     0.446222687  0.446222687  0.446222687

  position of ions in fractional coordinates (direct lattice)
     0.000000000  0.000000000  0.000000000

  ion indices of the primitive-cell ions
   primitive index   ion index
                 1           1

 KPOINTS: Automatic kpoint scheme

Automatic generation of k-mesh.
 Grid dimensions read from file:
 generate k-points for:    8    8    8

 Generating k-lattice:

  Cartesian coordinates                     Fractional coordinates (reciprocal lattice)
     0.039440886 -0.000000000  0.000000000     0.125000000  0.000000000  0.000000000
     0.000000000  0.039440886  0.000000000     0.000000000  0.125000000  0.000000000
    -0.000000000 -0.000000000  0.039440886     0.000000000  0.000000000  0.125000000

  Length of vectors
     0.039440886  0.039440886  0.039440886

  Shift w.r.t. Gamma in fractional coordinates (k-lattice)
     0.000000000  0.000000000  0.000000000

 Subroutine IBZKPT returns following result:

 Found     35 irreducible k-points:

 Following reciprocal coordinates:
            Coordinates               Weight
  0.000000  0.000000  0.000000      1.000000
  0.125000  0.000000  0.000000      6.000000
  0.250000  0.000000  0.000000      6.000000
  0.375000  0.000000  0.000000      6.000000
  0.500000  0.000000  0.000000      3.000000
  0.125000  0.125000  0.000000     12.000000
  0.250000  0.125000  0.000000     24.000000
  0.375000  0.125000  0.000000     24.000000
  0.500000  0.125000  0.000000     12.000000
  0.250000  0.250000  0.000000     12.000000
  0.375000  0.250000  0.000000     24.000000
  0.500000  0.250000  0.000000     12.000000
  0.375000  0.375000  0.000000     12.000000
  0.500000  0.375000  0.000000     12.000000
  0.500000  0.500000  0.000000      3.000000
  0.125000  0.125000  0.125000      8.000000
  0.250000  0.125000  0.125000     24.000000
  0.375000  0.125000  0.125000     24.000000
  0.500000  0.125000  0.125000     12.000000
  0.250000  0.250000  0.125000     24.000000
  0.375000  0.250000  0.125000     48.000000
  0.500000  0.250000  0.125000     24.000000
  0.375000  0.375000  0.125000     24.000000
  0.500000  0.375000  0.125000     24.000000
  0.500000  0.500000  0.125000      6.000000
  0.250000  0.250000  0.250000      8.000000
  0.375000  0.250000  0.250000     24.000000
  0.500000  0.250000  0.250000     12.000000
  0.375000  0.375000  0.250000     24.000000
  0.500000  0.375000  0.250000     24.000000
  0.500000  0.500000  0.250000      6.000000
  0.375000  0.375000  0.375000      8.000000
  0.500000  0.375000  0.375000     12.000000
  0.500000  0.500000  0.375000      6.000000
  0.500000  0.500000  0.500000      1.000000

 Following cartesian coordinates:
            Coordinates               Weight
  0.000000  0.000000  0.000000      1.000000
  0.039441 -0.000000  0.000000      6.000000
  0.078882 -0.000000  0.000000      6.000000
  0.118323 -0.000000  0.000000      6.000000
  0.157764 -0.000000  0.000000      3.000000
  0.039441  0.039441  0.000000     12.000000
  0.078882  0.039441  0.000000     24.000000
  0.118323  0.039441  0.000000     24.000000
  0.157764  0.039441  0.000000     12.000000
  0.078882  0.078882  0.000000     12.000000
  0.118323  0.078882  0.000000     24.000000
  0.157764  0.078882  0.000000     12.000000
  0.118323  0.118323  0.000000     12.000000
  0.157764  0.118323  0.000000     12.000000
  0.157764  0.157764  0.000000      3.000000
  0.039441  0.039441  0.039441      8.000000
  0.078882  0.039441  0.039441     24.000000
  0.118323  0.039441  0.039441     24.000000
  0.157764  0.039441  0.039441     12.000000
  0.078882  0.078882  0.039441     24.000000
  0.118323  0.078882  0.039441     48.000000
  0.157764  0.078882  0.039441     24.000000
  0.118323  0.118323  0.039441     24.000000
  0.157764  0.118323  0.039441     24.000000
  0.157764  0.157764  0.039441      6.000000
  0.078882  0.078882  0.078882      8.000000
  0.118323  0.078882  0.078882     24.000000
  0.157764  0.078882  0.078882     12.000000
  0.118323  0.118323  0.078882     24.000000
  0.157764  0.118323  0.078882     24.000000
  0.157764  0.157764  0.078882      6.000000
  0.118323  0.118323  0.118323      8.000000
  0.157764  0.118323  0.118323     12.000000
  0.157764  0.157764  0.118323      6.000000
  0.157764  0.157764  0.157764      1.000000

 Subroutine IBZKPT_HF returns following result:

 Found    512 k-points in 1st BZ
 the following    512 k-points will be used (e.g. in the exchange kernel)
 Following reciprocal coordinates:   # in IRBZ
  0.000000  0.000000  0.000000    0.00195312   1 t-inv F
  0.125000  0.000000  0.000000    0.00195312   2 t-inv F
  0.250000  0.000000  0.000000    0.00195312   3 t-inv F
  0.375000  0.000000  0.000000    0.00195312   4 t-inv F
  0.500000  0.000000  0.000000    0.00195312   5 t-inv F
  0.125000  0.125000  0.000000    0.00195312   6 t-inv F
  0.250000  0.125000  0.000000    0.00195312   7 t-inv F
  0.375000  0.125000  0.000000    0.00195312   8 t-inv F
  0.500000  0.125000  0.000000    0.00195312   9 t-inv F
  0.250000  0.250000  0.000000    0.00195312  10 t-inv F
  0.375000  0.250000  0.000000    0.00195312  11 t-inv F
  0.500000  0.250000  0.000000    0.00195312  12 t-inv F
  0.375000  0.375000  0.000000    0.00195312  13 t-inv F
  0.500000  0.375000  0.000000    0.00195312  14 t-inv F
  0.500000  0.500000  0.000000    0.00195312  15 t-inv F
  0.125000  0.125000  0.125000    0.00195312  16 t-inv F
  0.250000  0.125000  0.125000    0.00195312  17 t-inv F
  0.375000  0.125000  0.125000    0.00195312  18 t-inv F
  0.500000  0.125000  0.125000    0.00195312  19 t-inv F
  0.250000  0.250000  0.125000    0.00195312  20 t-inv F
  0.375000  0.250000  0.125000    0.00195312  21 t-inv F
  0.500000  0.250000  0.125000    0.00195312  22 t-inv F
  0.375000  0.375000  0.125000    0.00195312  23 t-inv F
  0.500000  0.375000  0.125000    0.00195312  24 t-inv F
  0.500000  0.500000  0.125000    0.00195312  25 t-inv F
  0.250000  0.250000  0.250000    0.00195312  26 t-inv F
  0.375000  0.250000  0.250000    0.00195312  27 t-inv F
  0.500000  0.250000  0.250000    0.00195312  28 t-inv F
  0.375000  0.375000  0.250000    0.00195312  29 t-inv F
  0.500000  0.375000  0.250000    0.00195312  30 t-inv F
  0.500000  0.500000  0.250000    0.00195312  31 t-inv F
  0.375000  0.375000  0.375000    0.00195312  32 t-inv F
  0.500000  0.375000  0.375000    0.00195312  33 t-inv F
  0.500000  0.500000  0.375000    0.00195312  34 t-inv F
  0.500000  0.500000  0.500000    0.00195312  35 t-inv F
 -0.125000 -0.000000  0.000000    0.00195312   2 t-inv F
  0.000000  0.125000  0.000000    0.00195312   2 t-inv F
  0.000000 -0.125000 -0.000000    0.00195312   2 t-inv F
  0.000000  0.000000  0.125000    0.00195312   2 t-inv F
 -0.000000  0.000000 -0.125000    0.00195312   2 t-inv F
 -0.250000 -0.000000  0.000000    0.00195312   3 t-inv F
  0.000000  0.250000  0.000000    0.00195312   3 t-inv F
[...]
 Gauss-broadening in eV      SIGMA  =   0.05

  energy-cutoff  :      315.48
  volume of cell :       31.83
      direct lattice vectors                 reciprocal lattice vectors
     3.169300000  0.000000000  0.000000000     0.315527088 -0.000000000  0.000000000
     0.000000000  3.169300000  0.000000000     0.000000000  0.315527088  0.000000000
     0.000000000  0.000000000  3.169300000    -0.000000000 -0.000000000  0.315527088

[...]

 old parameters found on file WAVECAR:
  energy-cutoff  :      315.48
  volume of cell :       31.83
      direct lattice vectors                 reciprocal lattice vectors
     3.169300000  0.000000000  0.000000000     0.315527088 -0.000000000  0.000000000
     0.000000000  3.169300000  0.000000000     0.000000000  0.315527088  0.000000000
     0.000000000  0.000000000  3.169300000    -0.000000000 -0.000000000  0.315527088

  length of vectors

 k-points in units of 2pi/SCALE and weight: Automatic kpoint scheme
   0.00000000  0.00000000  0.00000000       0.002
   0.03944089 -0.00000000  0.00000000       0.012
   0.07888177 -0.00000000  0.00000000       0.012
   0.11832266 -0.00000000  0.00000000       0.012
   0.15776354 -0.00000000  0.00000000       0.006
   0.03944089  0.03944089  0.00000000       0.023
   0.07888177  0.03944089  0.00000000       0.047
   0.11832266  0.03944089  0.00000000       0.047
   0.15776354  0.03944089  0.00000000       0.023
   0.07888177  0.07888177  0.00000000       0.023
   0.11832266  0.07888177  0.00000000       0.047
   0.15776354  0.07888177  0.00000000       0.023
   0.11832266  0.11832266  0.00000000       0.023
   0.15776354  0.11832266  0.00000000       0.023
   0.15776354  0.15776354  0.00000000       0.006
   0.03944089  0.03944089  0.03944089       0.016
   0.07888177  0.03944089  0.03944089       0.047
   0.11832266  0.03944089  0.03944089       0.047
   0.15776354  0.03944089  0.03944089       0.023
   0.07888177  0.07888177  0.03944089       0.047
   0.11832266  0.07888177  0.03944089       0.094
   0.15776354  0.07888177  0.03944089       0.047
   0.11832266  0.11832266  0.03944089       0.047
   0.15776354  0.11832266  0.03944089       0.047
   0.15776354  0.15776354  0.03944089       0.012
   0.07888177  0.07888177  0.07888177       0.016
   0.11832266  0.07888177  0.07888177       0.047
   0.15776354  0.07888177  0.07888177       0.023
   0.11832266  0.11832266  0.07888177       0.047
   0.15776354  0.11832266  0.07888177       0.047
   0.15776354  0.15776354  0.07888177       0.012
   0.11832266  0.11832266  0.11832266       0.016
   0.15776354  0.11832266  0.11832266       0.023
   0.15776354  0.15776354  0.11832266       0.012
   0.15776354  0.15776354  0.15776354       0.002

 k-points in reciprocal lattice and weights: Automatic kpoint scheme
   0.00000000  0.00000000  0.00000000       0.002
   0.12500000  0.00000000  0.00000000       0.012
   0.25000000  0.00000000  0.00000000       0.012
   0.37500000  0.00000000  0.00000000       0.012
   0.50000000  0.00000000  0.00000000       0.006
   0.12500000  0.12500000  0.00000000       0.023
   0.25000000  0.12500000  0.00000000       0.047
   0.37500000  0.12500000  0.00000000       0.047
   0.50000000  0.12500000  0.00000000       0.023
   0.25000000  0.25000000  0.00000000       0.023
   0.37500000  0.25000000  0.00000000       0.047
   0.50000000  0.25000000  0.00000000       0.023
   0.37500000  0.37500000  0.00000000       0.023
   0.50000000  0.37500000  0.00000000       0.023
   0.50000000  0.50000000  0.00000000       0.006
   0.12500000  0.12500000  0.12500000       0.016
   0.25000000  0.12500000  0.12500000       0.047
   0.37500000  0.12500000  0.12500000       0.047
   0.50000000  0.12500000  0.12500000       0.023
   0.25000000  0.25000000  0.12500000       0.047
   0.37500000  0.25000000  0.12500000       0.094
   0.50000000  0.25000000  0.12500000       0.047
   0.37500000  0.37500000  0.12500000       0.047
   0.50000000  0.37500000  0.12500000       0.047
   0.50000000  0.50000000  0.12500000       0.012
   0.25000000  0.25000000  0.25000000       0.016
   0.37500000  0.25000000  0.25000000       0.047
   0.50000000  0.25000000  0.25000000       0.023
   0.37500000  0.37500000  0.25000000       0.047
   0.50000000  0.37500000  0.25000000       0.047
   0.50000000  0.50000000  0.25000000       0.012
   0.37500000  0.37500000  0.37500000       0.016
   0.50000000  0.37500000  0.37500000       0.023
   0.50000000  0.50000000  0.37500000       0.012
   0.50000000  0.50000000  0.50000000       0.002

 position of ions in fractional coordinates (direct lattice)
   0.00000000  0.00000000  0.00000000
   0.50000000  0.50000000  0.50000000

 position of ions in cartesian coordinates  (Angst):
   0.00000000  0.00000000  0.00000000
   1.58465000  1.58465000  1.58465000

 k-point     1 :   0.0000 0.0000 0.0000  plane waves:     437
 k-point     2 :   0.1250 0.0000 0.0000  plane waves:     413
 k-point     3 :   0.2500 0.0000 0.0000  plane waves:     421
 k-point     4 :   0.3750 0.0000 0.0000  plane waves:     405
 k-point     5 :   0.5000 0.0000 0.0000  plane waves:     402
 k-point     6 :   0.1250 0.1250 0.0000  plane waves:     417
 k-point     7 :   0.2500 0.1250 0.0000  plane waves:     404
 k-point     8 :   0.3750 0.1250 0.0000  plane waves:     407
 k-point     9 :   0.5000 0.1250 0.0000  plane waves:     402
 k-point    10 :   0.2500 0.2500 0.0000  plane waves:     400
 k-point    11 :   0.3750 0.2500 0.0000  plane waves:     407
 k-point    12 :   0.5000 0.2500 0.0000  plane waves:     396
 k-point    13 :   0.3750 0.3750 0.0000  plane waves:     406
 k-point    14 :   0.5000 0.3750 0.0000  plane waves:     398
 k-point    15 :   0.5000 0.5000 0.0000  plane waves:     388
 k-point    16 :   0.1250 0.1250 0.1250  plane waves:     413
 k-point    17 :   0.2500 0.1250 0.1250  plane waves:     405
 k-point    18 :   0.3750 0.1250 0.1250  plane waves:     405
 k-point    19 :   0.5000 0.1250 0.1250  plane waves:     406
 k-point    20 :   0.2500 0.2500 0.1250  plane waves:     408
 k-point    21 :   0.3750 0.2500 0.1250  plane waves:     406
 k-point    22 :   0.5000 0.2500 0.1250  plane waves:     398
 k-point    23 :   0.3750 0.3750 0.1250  plane waves:     403
 k-point    24 :   0.5000 0.3750 0.1250  plane waves:     396
 k-point    25 :   0.5000 0.5000 0.1250  plane waves:     396
 k-point    26 :   0.2500 0.2500 0.2500  plane waves:     398
 k-point    27 :   0.3750 0.2500 0.2500  plane waves:     401
 k-point    28 :   0.5000 0.2500 0.2500  plane waves:     404
 k-point    29 :   0.3750 0.3750 0.2500  plane waves:     399
 k-point    30 :   0.5000 0.3750 0.2500  plane waves:     410
 k-point    31 :   0.5000 0.5000 0.2500  plane waves:     412
 k-point    32 :   0.3750 0.3750 0.3750  plane waves:     402
 k-point    33 :   0.5000 0.3750 0.3750  plane waves:     408
 k-point    34 :   0.5000 0.5000 0.3750  plane waves:     404
 k-point    35 :   0.5000 0.5000 0.5000  plane waves:     432

 maximum and minimum number of plane-waves per node :       437      388

 maximum number of plane-waves:       437
 maximum index in each direction:
   IXMAX=    4   IYMAX=    4   IZMAX=    4
   IXMIN=   -5   IYMIN=   -5   IZMIN=   -5

 serial   3D FFT for wavefunctions
 parallel 3D FFT for charge:
    minimum data exchange during FFTs selected (reduces bandwidth)

 Broyden mixing: mesh for mixing (old mesh)
   NGX =  9   NGY =  9   NGZ =  9
  (NGX  = 28   NGY  = 28   NGZ  = 28)
  gives a total of    729 points

 charge density for first step will be calculated from the start-wavefunctions

 Maximum index for augmentation-charges          293 (set IRDMAX)

 initial charge from wavefunction
 First call to EWALD:  gamma=   0.559
 Maximum number of real-space cells 3x 3x 3
 Maximum number of reciprocal cells 3x 3x 3

--------------------------------------- Ionic step        1  -------------------------------------------

--------------------------------------- Iteration      1(   1)  ---------------------------------------

 eigenvalue-minimisations  :  1920
 total energy-change (2. order) :-0.2184533E+02  (-0.6669629E-05)
 number of electron      27.9999967 magnetization
 augmentation part        4.8958988 magnetization

 Broyden mixing:
  rms(total) = 0.23656E-02    rms(broyden)= 0.23655E-02
  rms(prec ) = 0.33941E-02
  weight for this iteration     100.00

 Free energy of the ion-electron system (eV)
  alpha Z        PSCENC =       231.55998522
  Ewald energy   TEWEN  =     -3240.84836830
  -Hartree energ DENC   =      -541.17867727
  -exchange      EXHF   =         0.00000000
  -V(xc)+E(xc)   XCENC  =       130.77445245
  PAW double counting   =      3242.01382006    -3213.17864710
  entropy T*S    EENTRO =        -0.00234089
  eigenvalues    EBANDS =      -355.41680325
  atomic energy  EATOM  =      3724.43124407
  Solvation  Ediel_sol  =         0.00000000
  free energy    TOTEN  =       -21.84533500 eV

  energy without entropy =      -21.84299411  energy(sigma->0) =      -21.84416455

--------------------------------------- Iteration      1(   2)  ---------------------------------------

 eigenvalue-minimisations  :  1824
 total energy-change (2. order) : 0.1320135E-05  (-0.6944711E-06)
 number of electron      27.9999967 magnetization
 augmentation part        4.8958988 magnetization

 Free energy of the ion-electron system (eV)
  alpha Z        PSCENC =       231.55998522
  Ewald energy   TEWEN  =     -3240.84836830
  -Hartree energ DENC   =      -541.22215619
  -exchange      EXHF   =         0.00000000
  -V(xc)+E(xc)   XCENC  =       130.77662706
  PAW double counting   =      3241.78552927    -3212.94515905
  entropy T*S    EENTRO =        -0.00233798
  eigenvalues    EBANDS =      -355.38069779
  atomic energy  EATOM  =      3724.43124407
  Solvation  Ediel_sol  =         0.00000000
  free energy    TOTEN  =       -21.84533368 eV

  energy without entropy =      -21.84299570  energy(sigma->0) =      -21.84416469

 average (electrostatic) potential at core
  the test charge radii are     1.0818
  (the norm of the test charge is              1.0000)
       1 -69.4818       2 -69.4818

 E-fermi :  12.2944     XC(G=0): -13.2910     alpha+bet :-19.6296

 val. band max:       12.2786088274   @ k =   0.3750   0.3750   0.0000
 cond. band min:      12.2972793246   @ k =   0.2500   0.1250   0.0000
 fundamental gap:      0.0186704971
 Fermi energy:        12.2943814380

 k-point     1 :       0.0000    0.0000    0.0000
  band No.  band energies     occupation
      1     -48.9487      2.00000
      2     -48.5293      2.00000
      3     -23.1869      2.00000
      4     -23.1869      2.00000
      5     -23.1869      2.00000
      6     -22.2689      2.00000
      7     -22.2689      2.00000
      8     -22.2689      2.00000
      9       5.1285      2.00000
     10       7.0033      2.00000
     11       7.0033      2.00000
     12      10.9821      2.00000
     13      10.9821      2.00000
     14      10.9821      2.00000
     15      13.9349      0.00000
     16      13.9349      0.00000
     17      16.1902      0.00000
     18      16.1902      0.00000
     19      16.1902      0.00000
     20      21.2342      0.00000
     21      21.2342      0.00000
     22      21.2342      0.00000
     23      27.1095      0.00000
     24      27.1095      0.00000
     25      27.1095      0.00000
     26      31.6485      0.00000
     27      32.7734      0.00000
     28      32.7734      0.00000
     29      35.6061      0.00000
     30      38.4232      0.00000
     31      38.4232      0.00000
     32      41.8150      0.00000
     33      41.8150      0.00000
     34      41.8150      0.00000
     35      48.1042      0.00000
     36      48.1042      0.00000
     37      48.1042      0.00000
     38      48.7939      0.00000
     39      48.7939      0.00000
     40      48.7939      0.00000
     41      52.1310      0.00000
     42      54.3648      0.00000
     43      54.3648      0.00000
     44      54.3648      0.00000
     45      56.9373      0.00000
     46      56.9373      0.00000
     47      56.9373      0.00000
     48      58.4608      0.00000

[...]

 k-point    35 :       0.5000    0.5000    0.5000
  band No.  band energies     occupation
      1     -48.6836      2.00000
      2     -48.6836      2.00000
      3     -22.9400      2.00000
      4     -22.9400      2.00000
      5     -22.9400      2.00000
      6     -22.9400      2.00000
      7     -22.9400      2.00000
      8     -22.9400      2.00000
      9       9.7312      2.00000
     10       9.7312      2.00000
     11       9.7312      2.00000
     12       9.7312      2.00000
     13       9.7312      2.00000
     14       9.7312      2.00000
     15      14.6877      0.00000
     16      14.6877      0.00000
     17      14.6877      0.00000
     18      14.6877      0.00000
     19      21.7077      0.00000
     20      21.7077      0.00000
     21      23.6749      0.00000
     22      23.6749      0.00000
     23      23.6749      0.00000
     24      23.6749      0.00000
     25      23.6749      0.00000
     26      23.6749      0.00000
     27      37.9432      0.00000
     28      37.9432      0.00000
     29      37.9432      0.00000
     30      37.9432      0.00000
     31      37.9432      0.00000
     32      37.9432      0.00000
     33      40.3489      0.00000
     34      40.3489      0.00000
     35      40.3489      0.00000
     36      40.3489      0.00000
     37      40.3489      0.00000
     38      40.3489      0.00000
     39      52.9616      0.00000
     40      52.9616      0.00000
     41      56.7000      0.00000
     42      56.7000      0.00000
     43      56.7000      0.00000
     44      56.7000      0.00000
     45      59.1504      0.00000
     46      59.1504      0.00000
     47      59.1504      0.00000
     48      59.1504      0.00000

 soft charge-density along one line, spin component           1
         0         1         2         3         4         5         6         7         8         9
 total charge-density along one line

------------------------ aborting loop because EDIFF is reached ----------------------------------------

  FORCE on cell =-STRESS in cart. coord.  units (eV):
  Direction    XX          YY          ZZ          XY          YZ          ZX
  Alpha Z   231.55999   231.55999   231.55999
  Ewald   -1080.28271 -1080.28271 -1080.28271    -0.00000    -0.00000    -0.00000
  Hartree   180.41682   180.41682   180.41682    -0.00000    -0.00000    -0.00000
  E(xc)    -134.29853  -134.29853  -134.29853     0.00000     0.00000     0.00000
  Local     279.38306   279.38306   279.38306    -0.00000    -0.00000    -0.00000
  n-local   -58.53787   -47.31431   -42.03713     1.40133    -1.14023     0.15152
  augment    68.11983    68.11983    68.11983     0.00000    -0.00000     0.00000
  Kinetic   490.80934   503.68917   517.51706     7.33607    -3.10734     1.84590
  Fock        0.00000     0.00000     0.00000     0.00000     0.00000     0.00000
  Total      -0.39279    -0.39279    -0.39279     0.00000    -0.00000    -0.00000
  in kB     -19.76876   -19.76876   -19.76876     0.00000    -0.00000    -0.00000

 VOLUME and BASIS-vectors are now :
  energy-cutoff  :      315.48
  volume of cell :       31.83
      direct lattice vectors                 reciprocal lattice vectors
     3.169300000  0.000000000  0.000000000     0.315527088 -0.000000000  0.000000000
     0.000000000  3.169300000  0.000000000     0.000000000  0.315527088  0.000000000
     0.000000000  0.000000000  3.169300000    -0.000000000 -0.000000000  0.315527088

  length of vectors
     3.169300000  3.169300000  3.169300000     0.315527088  0.315527088  0.315527088

 FORCES acting on ions
    electron-ion (+dipol)            ewald-force                    non-local-force                 convergence-correction
   -.577E-14 -.193E-13 -.245E-13   -.186E-13 0.413E-14 -.511E-14   0.160E-25 -.295E-26 0.296E-27   0.163E-13 -.130E-13 -.152E-13
   0.231E-12 -.172E-11 -.250E-13   0.217E-13 -.474E-14 0.853E-14   -.437E-26 -.800E-26 0.191E-25   -.220E-13 -.786E-14 -.208E-13
   0.225E-12 -.174E-11 -.496E-13   0.304E-14 -.612E-15 0.342E-14   0.116E-25 -.110E-25 0.194E-25   -.574E-14 -.209E-13 -.360E-13

 POSITION                                       TOTAL-FORCE (eV/Angst)
      0.00000      0.00000      0.00000        -0.000000     -0.000000     -0.000000
      1.58465      1.58465      1.58465         0.000000      0.000000      0.000000
    total drift:                                0.000000     -0.000000     -0.000000

  FREE ENERGIE OF THE ION-ELECTRON SYSTEM (eV)
  free  energy   TOTEN  =       -21.84533368 eV

  energy  without entropy=      -21.84299570  energy(sigma->0) =      -21.84416469

 writing wavefunctions