 vasp.6.4.3 19Mar24 (build Jun 26 2024 13:02:28) complex

 executed on             LinuxIFC date 2025.08.08  18:49:27

 INCAR:
   ENCUT = 350.8232
   IBRION = -1
   ISMEAR = 0
   ISPIN = 2
   ISYM = 2
   LCHARG = True
   LWAVE = True
   MAGMOM = 1*3.0 1*-3.0 1*3.0 1*-3.0
   SIGMA = 0.05
   SYSTEM = Mn

 POTCAR:  PAW_PBE Mn_pv 02Aug2007
|           W    W    AA    RRRRR   N    N  II  N    N   GGGG   !!!           |
|           W    W   A  A   R    R  NN   N  II  NN   N  G    G  !!!           |
|           W    W  A    A  R    R  N N  N  II  N N  N  G       !!!           |
|           W WW W  AAAAAA  RRRRR   N  N N  II  N  N N  G  GGG   !            |
|           WW  WW  A    A  R   R   N   NN  II  N   NN  G    G                |
|           W    W  A    A  R    R  N    N  II  N    N   GGGG   !!!           |
|     For optimal performance we recommend to set                             |
|       NCORE = 2 up to number-of-cores-per-socket                            |
|     This setting can greatly improve the performance of VASP for DFT.       |
|     The default, NCORE=1 might be grossly inefficient on modern             |
|     multi-core architectures or massively parallel machines. Do your        |
|     Unfortunately you need to use the default for GW and RPA                |
|     calculations (for HF NCORE is supported but not extensively tested      |
|     yet).                                                                   |

 POTCAR:  PAW_PBE Mn_pv 02Aug2007
   VRHFIN =Mn: 3p4s3d

   TITEL  = PAW_PBE Mn_pv 02Aug2007
   POMASS =   54.938; ZVAL   =   13.000    mass and valenz
   ENMAX  =  269.864; ENMIN  =  202.398 eV

PAW_PBE Mn_pv 02Aug2007                 :

 POSCAR: Mn4
  positions in direct lattice

 exchange-correlation table for PE
   RHO(1)=    0.500       N(1)  =     2000
   RHO(2)=  100.500       N(2)  =     4000

 ion  position               nearest neighbor table
   1  0.000  0.000  0.000-   4 2.54   4 2.54   4 2.54   2 2.54   3 2.54   2 2.54   2 2.54   2 2.54
                             3 2.54   3 2.54   3 2.54   4 2.54
   2  0.000  0.500  0.500-   3 2.54   3 2.54   4 2.54   1 2.54   4 2.54   1 2.54   1 2.54   1 2.54
                             3 2.54   4 2.54   4 2.54   3 2.54
   3  0.500  0.000  0.500-   2 2.54   2 2.54   4 2.54   1 2.54   4 2.54   1 2.54   4 2.54   4 2.54
                             1 2.54   2 2.54   1 2.54   2 2.54
   4  0.500  0.500  0.000-   1 2.54   1 2.54   3 2.54   2 2.54   3 2.54   1 2.54   3 2.54   3 2.54
                             2 2.54   2 2.54   2 2.54   1 2.54

  LATTYP: Found a simple cubic cell.
 ALAT       =     3.5955200000

  Lattice vectors:

 A1 = (   3.5955200000,   0.0000000000,   0.0000000000)
 A2 = (   0.0000000000,   3.5955200000,   0.0000000000)
 A3 = (   0.0000000000,   0.0000000000,   3.5955200000)

Analysis of symmetry for initial positions (statically):
 Subroutine PRICEL returns following result:

  LATTYP: Found a face centered cubic cell.
 ALAT       =     3.5955200000

[...]

   4 primitive cells build up your supercell.

 Routine SETGRP: Setting up the symmetry group for a
 simple cubic supercell.

 Subroutine GETGRP returns: Found 48 space group operations
 (whereof 48 operations were pure point group operations)
 out of a pool of 48 trial point group operations.

The static configuration has the point symmetry O_h .

Analysis of symmetry for dynamics (positions and initial velocities):
 Subroutine PRICEL returns following result:

[...]

The dynamic configuration has the point symmetry O_h .

Analysis of structural, dynamic, and magnetic symmetry:
 Subroutine PRICEL returns following result:

  LATTYP: Found a face centered cubic cell.
 ALAT       =     3.5955200000

  Lattice vectors:

 A1 = (   1.7977600000,  -1.7977600000,   0.0000000000)
 A2 = (   1.7977600000,   0.0000000000,   1.7977600000)
 A3 = (  -0.0000000000,  -1.7977600000,   1.7977600000)

   4 primitive cells build up your supercell.

 Routine SETGRP: Setting up the symmetry group for a
 simple cubic supercell.

 Subroutine GETGRP returns: Found 16 space group operations
 (whereof 16 operations were pure point group operations)
 out of a pool of 48 trial point group operations.

The overall configuration has the point symmetry D_4h.

 Subroutine INISYM returns: Found 16 space group operations
 (whereof 16 operations are pure point group operations),
 and found     4 'primitive' translations

                                     Primitive cell

  volume of cell :      11.6205

  direct lattice vectors                    reciprocal lattice vectors
     1.797760000 -1.797760000  0.000000000     0.278123888 -0.278123888 -0.278123888
     1.797760000  0.000000000  1.797760000     0.278123888  0.278123888  0.278123888
    -0.000000000 -1.797760000  1.797760000    -0.278123888 -0.278123888  0.278123888

  length of vectors
     2.542416574  2.542416574  2.542416574     0.481724704  0.481724704  0.481724704

  position of ions in fractional coordinates (direct lattice)
     0.000000000  0.000000000  0.000000000

  ion indices of the primitive-cell ions
   primitive index   ion index
                 1           1

 KPOINTS: Automatic kpoint scheme

Automatic generation of k-mesh.
 Grid dimensions read from file:
 generate k-points for:    8    8    8

 Generating k-lattice:

  Cartesian coordinates                     Fractional coordinates (reciprocal lattice)
     0.034765486 -0.000000000  0.000000000     0.125000000  0.000000000  0.000000000
     0.000000000  0.034765486  0.000000000     0.000000000  0.125000000  0.000000000
    -0.000000000 -0.000000000  0.034765486     0.000000000 -0.000000000  0.125000000

  Length of vectors
     0.034765486  0.034765486  0.034765486

  Shift w.r.t. Gamma in fractional coordinates (k-lattice)
     0.000000000  0.000000000  0.000000000

 Subroutine IBZKPT returns following result:

 Found     75 irreducible k-points:

 Following reciprocal coordinates:
            Coordinates               Weight
  0.000000  0.000000  0.000000      1.000000
  0.125000  0.000000  0.000000      4.000000
  0.000000  0.125000  0.000000      2.000000
  0.250000  0.000000  0.000000      4.000000
  0.000000  0.250000  0.000000      2.000000
  0.375000  0.000000  0.000000      4.000000
  0.000000  0.375000  0.000000      2.000000
  0.500000  0.000000  0.000000      2.000000
  0.000000  0.500000  0.000000      1.000000
  0.125000  0.125000  0.000000      8.000000
  0.125000  0.000000  0.125000      4.000000
  0.250000  0.125000  0.000000      8.000000
 -0.000000  0.250000  0.125000      8.000000
  0.125000 -0.000000  0.250000      8.000000
  0.375000  0.125000  0.000000      8.000000
 -0.000000  0.375000  0.125000      8.000000
  0.125000 -0.000000  0.375000      8.000000
  0.500000  0.125000  0.000000      4.000000
 -0.000000  0.500000  0.125000      4.000000
  0.125000 -0.000000  0.500000      4.000000
  0.250000  0.250000  0.000000      8.000000
  0.250000  0.000000  0.250000      4.000000
  0.375000  0.250000  0.000000      8.000000
 -0.000000  0.375000  0.250000      8.000000
  0.250000  0.000000  0.375000      8.000000
  0.500000  0.250000  0.000000      4.000000
 -0.000000  0.500000  0.250000      4.000000
  0.250000 -0.000000  0.500000      4.000000
  0.375000  0.375000  0.000000      8.000000
  0.375000  0.000000  0.375000      4.000000
  0.500000  0.375000  0.000000      4.000000
 -0.000000  0.500000  0.375000      4.000000
  0.375000 -0.000000  0.500000      4.000000
  0.500000  0.500000  0.000000      2.000000
  0.500000  0.000000  0.500000      1.000000
  0.125000  0.125000  0.125000      8.000000
  0.250000  0.125000  0.125000     16.000000
  0.125000  0.250000  0.125000      8.000000
  0.375000  0.125000  0.125000     16.000000
  0.125000  0.375000  0.125000      8.000000
  0.500000  0.125000  0.125000      8.000000
  0.125000  0.500000  0.125000      4.000000
  0.250000  0.250000  0.125000     16.000000
  0.250000  0.125000  0.250000      8.000000
  0.375000  0.250000  0.125000     16.000000
  0.125000  0.375000  0.250000     16.000000
  0.250000  0.125000  0.375000     16.000000
  0.500000  0.250000  0.125000      8.000000
  0.125000  0.500000  0.250000      8.000000
  0.250000  0.125000  0.500000      8.000000
  0.375000  0.375000  0.125000     16.000000
  0.375000  0.125000  0.375000      8.000000
  0.500000  0.375000  0.125000      8.000000
  0.125000  0.500000  0.375000      8.000000
  0.375000  0.125000  0.500000      8.000000
  0.500000  0.500000  0.125000      4.000000
  0.500000  0.125000  0.500000      2.000000
  0.250000  0.250000  0.250000      8.000000
  0.375000  0.250000  0.250000     16.000000
  0.250000  0.375000  0.250000      8.000000
  0.500000  0.250000  0.250000      8.000000
  0.250000  0.500000  0.250000      4.000000
  0.375000  0.375000  0.250000     16.000000
  0.375000  0.250000  0.375000      8.000000
  0.500000  0.375000  0.250000      8.000000
  0.250000  0.500000  0.375000      8.000000
  0.375000  0.250000  0.500000      8.000000
  0.500000  0.500000  0.250000      4.000000
  0.500000  0.250000  0.500000      2.000000
  0.375000  0.375000  0.375000      8.000000
  0.500000  0.375000  0.375000      8.000000
  0.375000  0.500000  0.375000      4.000000
  0.500000  0.500000  0.375000      4.000000
  0.500000  0.375000  0.500000      2.000000
  0.500000  0.500000  0.500000      1.000000

 Following cartesian coordinates:
            Coordinates               Weight
  0.000000  0.000000  0.000000      1.000000
  0.034765 -0.000000  0.000000      4.000000
  0.000000  0.034765  0.000000      2.000000
  0.069531 -0.000000  0.000000      4.000000
  0.000000  0.069531  0.000000      2.000000
  0.104296 -0.000000  0.000000      4.000000
  0.000000  0.104296  0.000000      2.000000
  0.139062 -0.000000  0.000000      2.000000
  0.000000  0.139062  0.000000      1.000000
  0.034765  0.034765  0.000000      8.000000
  0.034765 -0.000000  0.034765      4.000000
  0.069531  0.034765  0.000000      8.000000
 -0.000000  0.069531  0.034765      8.000000
  0.034765 -0.000000  0.069531      8.000000
  0.104296  0.034765  0.000000      8.000000
 -0.000000  0.104296  0.034765      8.000000
  0.034765 -0.000000  0.104296      8.000000
  0.139062  0.034765  0.000000      4.000000
 -0.000000  0.139062  0.034765      4.000000
  0.034765 -0.000000  0.139062      4.000000
  0.069531  0.069531  0.000000      8.000000
  0.069531 -0.000000  0.069531      4.000000
  0.104296  0.069531  0.000000      8.000000
 -0.000000  0.104296  0.069531      8.000000
  0.069531 -0.000000  0.104296      8.000000
  0.139062  0.069531  0.000000      4.000000
 -0.000000  0.139062  0.069531      4.000000
  0.069531 -0.000000  0.139062      4.000000
  0.104296  0.104296  0.000000      8.000000
  0.104296 -0.000000  0.104296      4.000000
  0.139062  0.104296  0.000000      4.000000
 -0.000000  0.139062  0.104296      4.000000
  0.104296 -0.000000  0.139062      4.000000
  0.139062  0.139062  0.000000      2.000000
  0.139062 -0.000000  0.139062      1.000000
  0.034765  0.034765  0.034765      8.000000
  0.069531  0.034765  0.034765     16.000000
  0.034765  0.069531  0.034765      8.000000
  0.104296  0.034765  0.034765     16.000000
[...]
 k-point     4 :   0.2500 0.0000 0.0000  plane waves:     699
 k-point     5 :   0.0000 0.2500 0.0000  plane waves:     699
 k-point     6 :   0.3750 0.0000 0.0000  plane waves:     695
 k-point     7 :   0.0000 0.3750 0.0000  plane waves:     695
 k-point     8 :   0.5000 0.0000 0.0000  plane waves:     682
 k-point     9 :   0.0000 0.5000 0.0000  plane waves:     682
 k-point    10 :   0.1250 0.1250 0.0000  plane waves:     698
 k-point    11 :   0.1250 0.0000 0.1250  plane waves:     698
 k-point    12 :   0.2500 0.1250 0.0000  plane waves:     701
 k-point    13 :  -0.0000 0.2500 0.1250  plane waves:     701
 k-point    14 :   0.1250-0.0000 0.2500  plane waves:     701
 k-point    15 :   0.3750 0.1250 0.0000  plane waves:     691
 k-point    16 :  -0.0000 0.3750 0.1250  plane waves:     691
 k-point    17 :   0.1250-0.0000 0.3750  plane waves:     691
 k-point    18 :   0.5000 0.1250 0.0000  plane waves:     692
 k-point    19 :  -0.0000 0.5000 0.1250  plane waves:     692
 k-point    20 :   0.1250-0.0000 0.5000  plane waves:     692
 k-point    21 :   0.2500 0.2500 0.0000  plane waves:     708
 k-point    22 :   0.2500 0.0000 0.2500  plane waves:     708
 k-point    23 :   0.3750 0.2500 0.0000  plane waves:     691
 k-point    24 :  -0.0000 0.3750 0.2500  plane waves:     691
 k-point    25 :   0.2500 0.0000 0.3750  plane waves:     691
 k-point    26 :   0.5000 0.2500 0.0000  plane waves:     692
 k-point    27 :  -0.0000 0.5000 0.2500  plane waves:     692
 k-point    28 :   0.2500-0.0000 0.5000  plane waves:     692
 k-point    29 :   0.3750 0.3750 0.0000  plane waves:     696
 k-point    30 :   0.3750 0.0000 0.3750  plane waves:     696
 k-point    31 :   0.5000 0.3750 0.0000  plane waves:     698
 k-point    32 :  -0.0000 0.5000 0.3750  plane waves:     698
 k-point    33 :   0.3750-0.0000 0.5000  plane waves:     698
 k-point    34 :   0.5000 0.5000 0.0000  plane waves:     680
 k-point    35 :   0.5000 0.0000 0.5000  plane waves:     680
 k-point    36 :   0.1250 0.1250 0.1250  plane waves:     700
 k-point    37 :   0.2500 0.1250 0.1250  plane waves:     701
 k-point    38 :   0.1250 0.2500 0.1250  plane waves:     701
 k-point    39 :   0.3750 0.1250 0.1250  plane waves:     688
 k-point    40 :   0.1250 0.3750 0.1250  plane waves:     688
 k-point    41 :   0.5000 0.1250 0.1250  plane waves:     696
 k-point    42 :   0.1250 0.5000 0.1250  plane waves:     696
 k-point    43 :   0.2500 0.2500 0.1250  plane waves:     703
 k-point    44 :   0.2500 0.1250 0.2500  plane waves:     703
 k-point    45 :   0.3750 0.2500 0.1250  plane waves:     691
 k-point    46 :   0.1250 0.3750 0.2500  plane waves:     691
 k-point    47 :   0.2500 0.1250 0.3750  plane waves:     691
 k-point    48 :   0.5000 0.2500 0.1250  plane waves:     698
 k-point    49 :   0.1250 0.5000 0.2500  plane waves:     698
 k-point    50 :   0.2500 0.1250 0.5000  plane waves:     698
 k-point    51 :   0.3750 0.3750 0.1250  plane waves:     695
 k-point    52 :   0.3750 0.1250 0.3750  plane waves:     695
 k-point    53 :   0.5000 0.3750 0.1250  plane waves:     686
 k-point    54 :   0.1250 0.5000 0.3750  plane waves:     686
 k-point    55 :   0.3750 0.1250 0.5000  plane waves:     686
 k-point    56 :   0.5000 0.5000 0.1250  plane waves:     684
 k-point    57 :   0.5000 0.1250 0.5000  plane waves:     684
 k-point    58 :   0.2500 0.2500 0.2500  plane waves:     690
 k-point    59 :   0.3750 0.2500 0.2500  plane waves:     692
 k-point    60 :   0.2500 0.3750 0.2500  plane waves:     692
 k-point    61 :   0.5000 0.2500 0.2500  plane waves:     680
 k-point    62 :   0.2500 0.5000 0.2500  plane waves:     680
 k-point    63 :   0.3750 0.3750 0.2500  plane waves:     696
 k-point    64 :   0.3750 0.2500 0.3750  plane waves:     696
 k-point    65 :   0.5000 0.3750 0.2500  plane waves:     684
 k-point    66 :   0.2500 0.5000 0.3750  plane waves:     684
 k-point    67 :   0.3750 0.2500 0.5000  plane waves:     684
 k-point    68 :   0.5000 0.5000 0.2500  plane waves:     688
 k-point    69 :   0.5000 0.2500 0.5000  plane waves:     688
 k-point    70 :   0.3750 0.3750 0.3750  plane waves:     678
 k-point    71 :   0.5000 0.3750 0.3750  plane waves:     678
 k-point    72 :   0.3750 0.5000 0.3750  plane waves:     678
 k-point    73 :   0.5000 0.5000 0.3750  plane waves:     688
 k-point    74 :   0.5000 0.3750 0.5000  plane waves:     688
 k-point    75 :   0.5000 0.5000 0.5000  plane waves:     672

 maximum and minimum number of plane-waves per node :       739      672

 maximum number of plane-waves:       739
 maximum index in each direction:
   IXMAX=    5   IYMAX=    5   IZMAX=    5
   IXMIN=   -5   IYMIN=   -5   IZMIN=   -5

 serial   3D FFT for wavefunctions
 parallel 3D FFT for charge:
    minimum data exchange during FFTs selected (reduces bandwidth)

 Broyden mixing: mesh for mixing (old mesh)
   NGX = 11   NGY = 11   NGZ = 11
  (NGX  = 32   NGY  = 32   NGZ  = 32)
  gives a total of   1331 points

 charge density for first step will be calculated from the start-wavefunctions

 Maximum index for augmentation-charges          225 (set IRDMAX)

 initial charge from wavefunction
 First call to EWALD:  gamma=   0.493
 Maximum number of real-space cells 3x 3x 3
 Maximum number of reciprocal cells 3x 3x 3

--------------------------------------- Ionic step        1  -------------------------------------------

--------------------------------------- Iteration      1(   1)  ---------------------------------------

 eigenvalue-minimisations  :  7632
 total energy-change (2. order) :-0.3581582E+02  (-0.7078494E-05)
 number of electron      51.9999850 magnetization       0.0000000
 augmentation part       28.9288390 magnetization       0.0000000

 Broyden mixing:
  rms(total) = 0.20500E-02    rms(broyden)= 0.20485E-02
  rms(prec ) = 0.31045E-02
  weight for this iteration     100.00

 Free energy of the ion-electron system (eV)
  alpha Z        PSCENC =       415.08363837
  Ewald energy   TEWEN  =     -6206.36544920
  -Hartree energ DENC   =     -1686.41455274
  -exchange      EXHF   =         0.00000000
  -V(xc)+E(xc)   XCENC  =       271.75663575
  PAW double counting   =      7371.95402519    -7589.09995002
  entropy T*S    EENTRO =        -0.00822843
  eigenvalues    EBANDS =      -713.57700437
  atomic energy  EATOM  =      8100.85506777
  Solvation  Ediel_sol  =         0.00000000
  free energy    TOTEN  =       -35.81581768 eV

  energy without entropy =      -35.80758925  energy(sigma->0) =      -35.81170347

--------------------------------------- Iteration      1(   2)  ---------------------------------------

 eigenvalue-minimisations  :  7296
 total energy-change (2. order) :-0.2109355E-06  (-0.3516925E-05)
 number of electron      51.9999850 magnetization       0.0000000
 augmentation part       28.9288390 magnetization       0.0000000

 Free energy of the ion-electron system (eV)
  alpha Z        PSCENC =       415.08363837
  Ewald energy   TEWEN  =     -6206.36544920
  -Hartree energ DENC   =     -1686.33959784
  -exchange      EXHF   =         0.00000000
  -V(xc)+E(xc)   XCENC  =       271.75525881
  PAW double counting   =      7371.99753852    -7589.13685865
  entropy T*S    EENTRO =        -0.00823932
  eigenvalues    EBANDS =      -713.65717636
  atomic energy  EATOM  =      8100.85506777
  Solvation  Ediel_sol  =         0.00000000
  free energy    TOTEN  =       -35.81581790 eV

  energy without entropy =      -35.80757857  energy(sigma->0) =      -35.81169823

 average (electrostatic) potential at core
  the test charge radii are     0.9577
  (the norm of the test charge is              1.0000)
       1 -65.0591       2 -65.0591       3 -65.0591       4 -65.0591

 E-fermi :   9.5045     XC(G=0): -13.5185     alpha+bet :-17.7317

 val. band max:        9.5035029284   @ k =   0.3750   0.2500   0.0000
 cond. band min:       9.5086919999   @ k =   0.2500   0.2500   0.2500
 fundamental gap:      0.0051890715
 Fermi energy:         9.5045042879

 spin component 1

 k-point     1 :       0.0000    0.0000    0.0000
  band No.  band energies     occupation
      1     -39.4156      1.00000
      2     -39.3594      1.00000
      3     -39.3594      1.00000
      4     -39.3177      1.00000
      5     -39.0801      1.00000
      6     -39.0801      1.00000
      7     -37.3264      1.00000
      8     -37.3264      1.00000
      9     -37.2535      1.00000
     10     -37.2224      1.00000
     11     -37.0468      1.00000
     12     -37.0468      1.00000
     13       1.4859      1.00000
     14       4.9228      1.00000
     15       5.1559      1.00000
     16       5.5339      1.00000
     17       5.9357      1.00000
     18       5.9357      1.00000
     19       5.9366      1.00000
     20       8.3165      1.00000
     21       8.3165      1.00000
     22       8.7911      1.00000
     23       9.4722      0.81941
     24      10.2065      0.00000
     25      10.6965      0.00000
     26      10.7381      0.00000
     27      11.5800      0.00000
     28      11.5800      0.00000
     29      11.7012      0.00000
     30      11.7404      0.00000
     31      11.7404      0.00000
     32      11.9789      0.00000
     33      12.3058      0.00000
     34      12.6776      0.00000
     35      12.6919      0.00000
     36      12.6919      0.00000
     37      20.9005      0.00000
     38      20.9414      0.00000
     39      21.0160      0.00000
     40      24.1505      0.00000
     41      24.5115      0.00000
     42      24.5115      0.00000
     43      24.5376      0.00000
     44      24.5376      0.00000
     45      24.8527      0.00000
     46      30.2548      0.00000
     47      30.2548      0.00000
     48      30.2568      0.00000

[...]

 k-point    75 :       0.5000    0.5000    0.5000
  band No.  band energies     occupation
      1     -39.4075      1.00000
      2     -39.4075      1.00000
      3     -39.3820      1.00000
      4     -39.3820      1.00000
      5     -39.0474      1.00000
      6     -39.0474      1.00000
      7     -37.3500      1.00000
      8     -37.3500      1.00000
      9     -37.2334      1.00000
     10     -37.2334      1.00000
     11     -37.0237      1.00000
     12     -37.0237      1.00000
     13       5.1696      1.00000
     14       5.1696      1.00000
     15       5.4116      1.00000
     16       5.4116      1.00000
     17       7.8219      1.00000
     18       7.8219      1.00000
     19       8.0057      1.00000
     20       8.0057      1.00000
     21       8.4141      1.00000
     22       8.4141      1.00000
     23       9.1158      1.00000
     24       9.1158      1.00000
     25       9.8013      0.00000
     26       9.8013      0.00000
     27       9.9319      0.00000
     28       9.9319      0.00000
     29      10.7306      0.00000
     30      10.7306      0.00000
     31      11.4717      0.00000
     32      11.4717      0.00000
     33      11.6277      0.00000
     34      11.6277      0.00000
     35      11.7865      0.00000
     36      11.7865      0.00000
     37      17.7637      0.00000
     38      17.7637      0.00000
     39      17.8921      0.00000
     40      17.8921      0.00000
     41      29.1093      0.00000
     42      29.1093      0.00000
     43      29.1175      0.00000
     44      29.1175      0.00000
     45      33.9740      0.00000
     46      33.9740      0.00000
     47      34.2422      0.00000
     48      34.2422      0.00000
 Fermi energy:         9.5045042879

 spin component 2

[...]

 k-point    75 :       0.5000    0.5000    0.5000
  band No.  band energies     occupation
      1     -39.4075      1.00000
      2     -39.4075      1.00000
      3     -39.3820      1.00000
      4     -39.3820      1.00000
      5     -39.0474      1.00000
      6     -39.0474      1.00000
      7     -37.3500      1.00000
      8     -37.3500      1.00000
      9     -37.2334      1.00000
     10     -37.2334      1.00000
     11     -37.0237      1.00000
     12     -37.0237      1.00000
     13       5.1696      1.00000
     14       5.1696      1.00000
     15       5.4116      1.00000
     16       5.4116      1.00000
     17       7.8219      1.00000
     18       7.8219      1.00000
     19       8.0057      1.00000
     20       8.0057      1.00000
     21       8.4141      1.00000
     22       8.4141      1.00000
     23       9.1158      1.00000
     24       9.1158      1.00000
     25       9.8013      0.00000
     26       9.8013      0.00000
     27       9.9319      0.00000
     28       9.9319      0.00000
     29      10.7306      0.00000
     30      10.7306      0.00000
     31      11.4717      0.00000
     32      11.4717      0.00000
     33      11.6277      0.00000
     34      11.6277      0.00000
     35      11.7865      0.00000
     36      11.7865      0.00000
     37      17.7637      0.00000
     38      17.7637      0.00000
     39      17.8921      0.00000
     40      17.8921      0.00000
     41      29.1093      0.00000
     42      29.1093      0.00000
     43      29.1175      0.00000
     44      29.1175      0.00000
     45      33.9740      0.00000
     46      33.9740      0.00000
     47      34.2422      0.00000
     48      34.2422      0.00000

 soft charge-density along one line, spin component           1
         0         1         2         3         4         5         6         7         8         9
 total charge-density along one line

 soft charge-density along one line, spin component           2
         0         1         2         3         4         5         6         7         8         9
 total charge-density along one line

------------------------ aborting loop because EDIFF is reached ----------------------------------------

  FORCE on cell =-STRESS in cart. coord.  units (eV):
  Direction    XX          YY          ZZ          XY          YZ          ZX
  Alpha Z   415.08364   415.08364   415.08364
  Ewald   -2068.78939 -2068.78939 -2068.78939     0.00000     0.00000     0.00000
  Hartree   563.47985   559.46901   563.47985    -0.00000    -0.00000    -0.00000
  E(xc)    -309.71630  -309.72907  -309.71630     0.00000     0.00000     0.00000
  Local     585.14386   595.96319   585.14386     0.00000    -0.00000    -0.00000
  n-local  -142.81963  -141.61833  -142.49133     2.98625     2.98188     3.70214
  augment   396.20230   391.56998   396.20230     0.00000     0.00000     0.00000
  Kinetic   562.29701   555.92150   560.24793     2.91251     2.81092     0.98728
  Fock        0.00000     0.00000     0.00000     0.00000     0.00000     0.00000
  Total       0.02095    -2.12946     0.02095    -0.00000    -0.00000     0.00000
  in kB       0.72225   -73.39997     0.72225    -0.00000    -0.00000     0.00000

 VOLUME and BASIS-vectors are now :
  energy-cutoff  :      350.82
  volume of cell :       46.48
      direct lattice vectors                 reciprocal lattice vectors
     3.595520000  0.000000000  0.000000000     0.278123888 -0.000000000  0.000000000
     0.000000000  3.595520000  0.000000000     0.000000000  0.278123888  0.000000000
     0.000000000  0.000000000  3.595520000    -0.000000000 -0.000000000  0.278123888

  length of vectors
     3.595520000  3.595520000  3.595520000     0.278123888  0.278123888  0.278123888

 FORCES acting on ions
    electron-ion (+dipol)            ewald-force                    non-local-force                 convergence-correction
   -.934E-14 0.226E-14 -.877E-15   -.230E-13 -.148E-13 -.150E-13   0.147E-25 0.181E-25 -.530E-25   -.126E-13 -.222E-13 0.263E-13
   -.104E-13 0.312E-12 0.310E-12   -.222E-13 0.176E-13 0.668E-14   -.280E-24 -.414E-25 -.856E-25   -.581E-14 0.763E-14 0.191E-13
   0.302E-12 -.108E-13 0.226E-11   0.194E-13 -.190E-13 0.641E-14   0.179E-24 -.662E-25 0.348E-24   -.117E-13 -.666E-14 0.807E-14
   0.306E-12 0.313E-12 -.117E-11   0.201E-13 0.134E-13 -.373E-14   -.736E-25 0.435E-25 -.126E-25   -.103E-13 0.127E-13 0.390E-13
   0.588E-12 0.617E-12 0.140E-11   -.566E-14 -.294E-14 -.561E-14   -.159E-24 -.460E-25 0.197E-24   -.404E-13 -.850E-14 0.925E-13

 POSITION                                       TOTAL-FORCE (eV/Angst)
      0.00000      0.00000      0.00000         0.000000      0.000000     -0.000000
      0.00000      1.79776      1.79776        -0.000000     -0.000000      0.000000
      1.79776      0.00000      1.79776        -0.000000     -0.000000     -0.000000
      1.79776      1.79776      0.00000        -0.000000      0.000000      0.000000
    total drift:                                0.000000      0.000000      0.000000

  FREE ENERGIE OF THE ION-ELECTRON SYSTEM (eV)
  free  energy   TOTEN  =       -35.81581790 eV

  energy  without entropy=      -35.80757857  energy(sigma->0) =      -35.81169823

 writing wavefunctions