 vasp.6.4.3 19Mar24 (build Jun 26 2024 13:02:28) complex

 executed on             LinuxIFC date 2025.08.08  19:55:21

 INCAR:
   ENCUT = 298.9259
   IBRION = -1
   ISMEAR = 0
   ISYM = 2
   LCHARG = True
   LSORBIT = True
   LWAVE = True
   SAXIS = 0 0 1
   SIGMA = 0.05
   SYSTEM = Au

 POTCAR:  PAW_PBE Au 04Oct2007
|           W    W    AA    RRRRR   N    N  II  N    N   GGGG   !!!           |
|           W    W   A  A   R    R  NN   N  II  NN   N  G    G  !!!           |
|           W    W  A    A  R    R  N N  N  II  N N  N  G       !!!           |
|           W WW W  AAAAAA  RRRRR   N  N N  II  N  N N  G  GGG   !            |
|           WW  WW  A    A  R   R   N   NN  II  N   NN  G    G                |
|           W    W  A    A  R    R  N    N  II  N    N   GGGG   !!!           |
|     You use a magnetic or noncollinear calculation, but did not specify     |
|     the initial magnetic moment with the MAGMOM tag. Note that a            |
|     default of 1 will be used for all atoms. This ferromagnetic setup       |
|     may break the symmetry of the crystal, in particular it may rule        |
|     out finding an antiferromagnetic solution. Thence, we recommend         |
|     setting the initial magnetic moment manually or verifying carefully     |
|     that this magnetic setup is desired.                                    |

 POTCAR:  PAW_PBE Au 04Oct2007
   VRHFIN =Au: s1d10

   TITEL  = PAW_PBE Au 04Oct2007
   POMASS =  196.966; ZVAL   =   11.000    mass and valenz
   ENMAX  =  229.943; ENMIN  =  172.457 eV

PAW_PBE Au 04Oct2007                    :

 POSCAR: Au4
  positions in direct lattice

 exchange-correlation table for PE
   RHO(1)=    0.500       N(1)  =     2000
   RHO(2)=  100.500       N(2)  =     4000

 ion  position               nearest neighbor table
   1  0.000  0.000  0.000-   4 2.95   4 2.95   2 2.95   3 2.95   2 2.95   2 2.95   2 2.95   3 2.95
                             3 2.95   3 2.95   4 2.95   4 2.95
   2  0.000  0.500  0.500-   3 2.95   3 2.95   1 2.95   4 2.95   1 2.95   1 2.95   1 2.95   4 2.95
                             4 2.95   4 2.95   3 2.95   3 2.95
   3  0.500  0.000  0.500-   2 2.95   2 2.95   1 2.95   4 2.95   1 2.95   4 2.95   4 2.95   1 2.95
                             4 2.95   1 2.95   2 2.95   2 2.95
   4  0.500  0.500  0.000-   1 2.95   1 2.95   2 2.95   3 2.95   2 2.95   3 2.95   3 2.95   3 2.95
                             2 2.95   2 2.95   1 2.95   1 2.95

  LATTYP: Found a simple cubic cell.
 ALAT       =     4.1741000000

  Lattice vectors:

 A1 = (   4.1741000000,   0.0000000000,   0.0000000000)
 A2 = (   0.0000000000,   4.1741000000,   0.0000000000)
 A3 = (   0.0000000000,   0.0000000000,   4.1741000000)

Analysis of symmetry for initial positions (statically):
 Subroutine PRICEL returns following result:

  LATTYP: Found a face centered cubic cell.
 ALAT       =     4.1741000000

[...]

   4 primitive cells build up your supercell.

 Routine SETGRP: Setting up the symmetry group for a
 simple cubic supercell.

 Subroutine GETGRP returns: Found 48 space group operations
 (whereof 48 operations were pure point group operations)
 out of a pool of 48 trial point group operations.

The static configuration has the point symmetry O_h .

Analysis of symmetry for dynamics (positions and initial velocities):
 Subroutine PRICEL returns following result:

[...]

The dynamic configuration has the point symmetry O_h .

Analysis of structural, dynamic, and magnetic symmetry:
 Subroutine PRICEL returns following result:

  LATTYP: Found a face centered cubic cell.
 ALAT       =     4.1741000000

  Lattice vectors:

 A1 = (   2.0870500000,  -2.0870500000,   0.0000000000)
 A2 = (   2.0870500000,   0.0000000000,   2.0870500000)
 A3 = (   0.0000000000,  -2.0870500000,   2.0870500000)

   4 primitive cells build up your supercell.

 Routine SETGRP: Setting up the symmetry group for a
 simple cubic supercell.

 Subroutine GETGRP returns: Found  6 space group operations
 (whereof  6 operations were pure point group operations)
 out of a pool of 48 trial point group operations.

The overall configuration has the point symmetry S_6 .

 Subroutine INISYM returns: Found  6 space group operations
 (whereof  6 operations are pure point group operations),
 and found     4 'primitive' translations

                                     Primitive cell

  volume of cell :      18.1815

  direct lattice vectors                    reciprocal lattice vectors
     2.087050000 -2.087050000  0.000000000     0.239572602 -0.239572602 -0.239572602
     2.087050000  0.000000000  2.087050000     0.239572602  0.239572602  0.239572602
     0.000000000 -2.087050000  2.087050000    -0.239572602 -0.239572602  0.239572602

  length of vectors
     2.951534415  2.951534415  2.951534415     0.414951920  0.414951920  0.414951920

  position of ions in fractional coordinates (direct lattice)
     0.000000000  0.000000000  0.000000000

  ion indices of the primitive-cell ions
   primitive index   ion index
                 1           1

 KPOINTS: Automatic kpoint scheme

Automatic generation of k-mesh.
 Grid dimensions read from file:
 generate k-points for:    8    8    8

 Generating k-lattice:

  Cartesian coordinates                     Fractional coordinates (reciprocal lattice)
     0.029946575 -0.000000000  0.000000000     0.125000000  0.000000000  0.000000000
     0.000000000  0.029946575  0.000000000     0.000000000  0.125000000  0.000000000
    -0.000000000 -0.000000000  0.029946575    -0.000000000 -0.000000000  0.125000000

  Length of vectors
     0.029946575  0.029946575  0.029946575

  Shift w.r.t. Gamma in fractional coordinates (k-lattice)
     0.000000000  0.000000000  0.000000000

 Subroutine IBZKPT returns following result:

 Found     90 irreducible k-points:

 Following reciprocal coordinates:
            Coordinates               Weight
  0.000000  0.000000  0.000000      1.000000
  0.125000  0.000000  0.000000      6.000000
  0.250000  0.000000  0.000000      6.000000
  0.375000  0.000000  0.000000      6.000000
  0.500000  0.000000  0.000000      3.000000
  0.125000  0.125000  0.000000      6.000000
 -0.125000  0.125000  0.000000      6.000000
  0.250000  0.125000  0.000000      6.000000
 -0.125000  0.250000  0.000000      6.000000
  0.000000  0.125000  0.250000      6.000000
  0.000000 -0.250000  0.125000      6.000000
  0.375000  0.125000  0.000000      6.000000
 -0.125000  0.375000  0.000000      6.000000
  0.000000  0.125000  0.375000      6.000000
  0.000000 -0.375000  0.125000      6.000000
  0.500000  0.125000  0.000000      6.000000
 -0.125000  0.500000  0.000000      6.000000
  0.250000  0.250000  0.000000      6.000000
 -0.250000  0.250000  0.000000      6.000000
  0.375000  0.250000  0.000000      6.000000
 -0.250000  0.375000  0.000000      6.000000
  0.000000  0.250000  0.375000      6.000000
  0.000000 -0.375000  0.250000      6.000000
  0.500000  0.250000  0.000000      6.000000
 -0.250000  0.500000  0.000000      6.000000
  0.375000  0.375000  0.000000      6.000000
 -0.375000  0.375000  0.000000      6.000000
  0.500000  0.375000  0.000000      6.000000
 -0.375000  0.500000  0.000000      6.000000
  0.500000  0.500000  0.000000      3.000000
  0.125000  0.125000  0.125000      2.000000
 -0.125000  0.125000  0.125000      6.000000
  0.250000  0.125000  0.125000      6.000000
 -0.125000  0.250000  0.125000      6.000000
 -0.250000  0.125000  0.125000      6.000000
 -0.125000  0.125000  0.250000      6.000000
  0.375000  0.125000  0.125000      6.000000
 -0.125000  0.375000  0.125000      6.000000
 -0.375000  0.125000  0.125000      6.000000
 -0.125000  0.125000  0.375000      6.000000
  0.500000  0.125000  0.125000      6.000000
 -0.125000  0.500000  0.125000      6.000000
  0.250000  0.250000  0.125000      6.000000
 -0.250000  0.250000  0.125000      6.000000
 -0.250000  0.125000  0.250000      6.000000
 -0.125000  0.250000  0.250000      6.000000
  0.375000  0.250000  0.125000      6.000000
 -0.250000  0.375000  0.125000      6.000000
 -0.375000  0.125000  0.250000      6.000000
 -0.125000  0.250000  0.375000      6.000000
 -0.375000 -0.250000  0.125000      6.000000
 -0.125000 -0.375000  0.250000      6.000000
 -0.250000 -0.125000  0.375000      6.000000
 -0.375000 -0.125000 -0.250000      6.000000
  0.500000  0.250000  0.125000      6.000000
 -0.250000  0.500000  0.125000      6.000000
  0.500000  0.125000  0.250000      6.000000
  0.500000 -0.250000  0.125000      6.000000
  0.375000  0.375000  0.125000      6.000000
 -0.375000  0.375000  0.125000      6.000000
[...]
  0.375000  0.375000  0.250000      6.000000
 -0.375000  0.375000  0.250000      6.000000
 -0.375000  0.250000  0.375000      6.000000
 -0.250000  0.375000  0.375000      6.000000
  0.500000  0.375000  0.250000      6.000000
 -0.375000  0.500000  0.250000      6.000000
  0.500000  0.250000  0.375000      6.000000
  0.500000 -0.375000  0.250000      6.000000
  0.500000  0.500000  0.250000      6.000000
  0.375000  0.375000  0.375000      2.000000
 -0.375000  0.375000  0.375000      6.000000
  0.500000  0.375000  0.375000      6.000000
 -0.375000  0.500000  0.375000      6.000000
  0.500000  0.500000  0.375000      6.000000
  0.500000  0.500000  0.500000      1.000000

 Following cartesian coordinates:
            Coordinates               Weight
  0.000000  0.000000  0.000000      1.000000
  0.029947 -0.000000  0.000000      6.000000
  0.059893 -0.000000  0.000000      6.000000
  0.089840 -0.000000  0.000000      6.000000
  0.119786 -0.000000  0.000000      3.000000
  0.029947  0.029947  0.000000      6.000000
 -0.029947  0.029947  0.000000      6.000000
  0.059893  0.029947  0.000000      6.000000
 -0.029947  0.059893  0.000000      6.000000
 -0.000000  0.029947  0.059893      6.000000
 -0.000000 -0.059893  0.029947      6.000000
  0.089840  0.029947  0.000000      6.000000
 -0.029947  0.089840  0.000000      6.000000
 -0.000000  0.029947  0.089840      6.000000
 -0.000000 -0.089840  0.029947      6.000000
  0.119786  0.029947  0.000000      6.000000
 -0.029947  0.119786  0.000000      6.000000
  0.059893  0.059893  0.000000      6.000000
 -0.059893  0.059893  0.000000      6.000000
  0.089840  0.059893  0.000000      6.000000
 -0.059893  0.089840  0.000000      6.000000
 -0.000000  0.059893  0.089840      6.000000
 -0.000000 -0.089840  0.059893      6.000000
  0.119786  0.059893  0.000000      6.000000
 -0.059893  0.119786  0.000000      6.000000
  0.089840  0.089840  0.000000      6.000000
 -0.089840  0.089840  0.000000      6.000000
  0.119786  0.089840  0.000000      6.000000
 -0.089840  0.119786  0.000000      6.000000
  0.119786  0.119786  0.000000      3.000000
  0.029947  0.029947  0.029947      2.000000
 -0.029947  0.029947  0.029947      6.000000
  0.059893  0.029947  0.029947      6.000000
 -0.029947  0.059893  0.029947      6.000000
 -0.059893  0.029947  0.029947      6.000000
 -0.029947  0.029947  0.059893      6.000000
  0.089840  0.029947  0.029947      6.000000
 -0.029947  0.089840  0.029947      6.000000
 -0.089840  0.029947  0.029947      6.000000
 -0.029947  0.029947  0.089840      6.000000
  0.119786  0.029947  0.029947      6.000000
[...]
 k-point    48 :  -0.2500 0.3750 0.1250  plane waves:    1704
 k-point    49 :  -0.3750 0.1250 0.2500  plane waves:    1704
 k-point    50 :  -0.1250 0.2500 0.3750  plane waves:    1704
 k-point    51 :  -0.3750-0.2500 0.1250  plane waves:    1704
 k-point    52 :  -0.1250-0.3750 0.2500  plane waves:    1704
 k-point    53 :  -0.2500-0.1250 0.3750  plane waves:    1704
 k-point    54 :  -0.3750-0.1250-0.2500  plane waves:    1704
 k-point    55 :   0.5000 0.2500 0.1250  plane waves:    1712
 k-point    56 :  -0.2500 0.5000 0.1250  plane waves:    1712
 k-point    57 :   0.5000 0.1250 0.2500  plane waves:    1712
 k-point    58 :   0.5000-0.2500 0.1250  plane waves:    1712
 k-point    59 :   0.3750 0.3750 0.1250  plane waves:    1714
 k-point    60 :  -0.3750 0.3750 0.1250  plane waves:    1714
[...]
 k-point    76 :   0.3750 0.3750 0.2500  plane waves:    1720
 k-point    77 :  -0.3750 0.3750 0.2500  plane waves:    1720
 k-point    78 :  -0.3750 0.2500 0.3750  plane waves:    1720
 k-point    79 :  -0.2500 0.3750 0.3750  plane waves:    1720
 k-point    80 :   0.5000 0.3750 0.2500  plane waves:    1716
 k-point    81 :  -0.3750 0.5000 0.2500  plane waves:    1716
 k-point    82 :   0.5000 0.2500 0.3750  plane waves:    1716
 k-point    83 :   0.5000-0.3750 0.2500  plane waves:    1716
 k-point    84 :   0.5000 0.5000 0.2500  plane waves:    1728
 k-point    85 :   0.3750 0.3750 0.3750  plane waves:    1700
 k-point    86 :  -0.3750 0.3750 0.3750  plane waves:    1700
 k-point    87 :   0.5000 0.3750 0.3750  plane waves:    1740
 k-point    88 :  -0.3750 0.5000 0.3750  plane waves:    1740
 k-point    89 :   0.5000 0.5000 0.3750  plane waves:    1752
 k-point    90 :   0.5000 0.5000 0.5000  plane waves:    1680

 maximum and minimum number of plane-waves per node :      1752     1680

 maximum number of plane-waves:      1752
 maximum index in each direction:
   IXMAX=    6   IYMAX=    6   IZMAX=    6
   IXMIN=   -6   IYMIN=   -6   IZMIN=   -6

 serial   3D FFT for wavefunctions
 parallel 3D FFT for charge:
    minimum data exchange during FFTs selected (reduces bandwidth)

 Broyden mixing: mesh for mixing (old mesh)
   NGX = 11   NGY = 11   NGZ = 11
  (NGX  = 36   NGY  = 36   NGZ  = 36)
  gives a total of   1331 points

 charge density for first step will be calculated from the start-wavefunctions

 Maximum index for augmentation-charges          341 (set IRDMAX)

 initial charge from wavefunction
 First call to EWALD:  gamma=   0.425
 Maximum number of real-space cells 3x 3x 3
 Maximum number of reciprocal cells 3x 3x 3

--------------------------------------- Ionic step        1  -------------------------------------------

--------------------------------------- Iteration      1(   1)  ---------------------------------------

 eigenvalue-minimisations  : 14112
 total energy-change (2. order) :-0.1403129E+02  (-0.2171642E-06)
 number of electron      44.0000046 magnetization      -0.0000134     -0.0000134     -0.0000134
 augmentation part       16.0731328 magnetization       0.0000213      0.0000213      0.0000213

 Broyden mixing:
  rms(total) = 0.18540E-03    rms(broyden)= 0.18537E-03
  rms(prec ) = 0.26449E-03
  weight for this iteration     100.00

 Free energy of the ion-electron system (eV)
  alpha Z        PSCENC =       256.26029620
  Ewald energy   TEWEN  =     -3827.67336174
  -Hartree energ DENC   =      -483.64945731
  -exchange      EXHF   =         0.00000000
  -V(xc)+E(xc)   XCENC  =        59.68850905
  PAW double counting   =      4109.07060858    -4026.85330232
  entropy T*S    EENTRO =        -0.00257949
  eigenvalues    EBANDS =       194.96544586
  atomic energy  EATOM  =      3704.16255564
  Solvation  Ediel_sol  =         0.00000000
  free energy    TOTEN  =       -14.03128554 eV

  energy without entropy =      -14.02870605  energy(sigma->0) =      -14.02999579

--------------------------------------- Iteration      1(   2)  ---------------------------------------

 eigenvalue-minimisations  : 13632
 total energy-change (2. order) :-0.7703647E-07  (-0.2136107E-07)
 number of electron      44.0000046 magnetization      -0.0000134     -0.0000134     -0.0000134
 augmentation part       16.0731328 magnetization       0.0000213      0.0000213      0.0000213

 Free energy of the ion-electron system (eV)
  alpha Z        PSCENC =       256.26029620
  Ewald energy   TEWEN  =     -3827.67336174
  -Hartree energ DENC   =      -483.65349657
  -exchange      EXHF   =         0.00000000
  -V(xc)+E(xc)   XCENC  =        59.68867151
  PAW double counting   =      4109.10166695    -4026.88392457
  entropy T*S    EENTRO =        -0.00257927
  eigenvalues    EBANDS =       194.96888624
  atomic energy  EATOM  =      3704.16255564
  Solvation  Ediel_sol  =         0.00000000
  free energy    TOTEN  =       -14.03128561 eV

  energy without entropy =      -14.02870634  energy(sigma->0) =      -14.02999598

 average (electrostatic) potential at core
  the test charge radii are     1.2098
  (the norm of the test charge is              1.0000)
       1 -65.0028       2 -65.0028       3 -65.0028       4 -65.0028

 E-fermi :   8.4844     XC(G=0): -12.3409     alpha+bet :-13.0601

 val. band max:        8.4266049933   @ k =   0.1250   0.0000   0.0000
 cond. band min:       8.4970340883   @ k =   0.3750   0.3750   0.2500
 fundamental gap:      0.0704290950
 Fermi energy:         8.4843641189

 k-point     1 :       0.0000    0.0000    0.0000
  band No.  band energies     occupation
      1      -0.7643      1.00000
      2      -0.7643      1.00000
      3       1.8241      1.00000
      4       1.8241      1.00000
      5       1.8241      1.00000
      6       1.8241      1.00000
      7       1.8241      1.00000
      8       1.8241      1.00000
      9       2.0667      1.00000
     10       2.0667      1.00000
     11       2.0667      1.00000
     12       2.0667      1.00000
     13       2.0667      1.00000
     14       2.0667      1.00000
     15       3.4266      1.00000
     16       3.4266      1.00000
     17       3.4266      1.00000
     18       3.4266      1.00000
     19       4.6321      1.00000
     20       4.6321      1.00000
     21       5.6928      1.00000
     22       5.6928      1.00000
     23       5.6928      1.00000
     24       5.6928      1.00000
     25       6.2410      1.00000
     26       6.2410      1.00000
     27       6.2410      1.00000
     28       6.2410      1.00000
     29       6.2410      1.00000
     30       6.2410      1.00000
     31       6.4138      1.00000
     32       6.4138      1.00000
     33       6.4138      1.00000
     34       6.4138      1.00000
     35       6.4138      1.00000
     36       6.4138      1.00000
     37       7.4004      1.00000
     38       7.4004      1.00000
     39       7.4004      1.00000
     40       7.4004      1.00000
     41       7.4004      1.00000
     42       7.4004      1.00000
     43       9.4663      0.00000
     44       9.4663      0.00000
     45       9.4663      0.00000
     46       9.4663      0.00000
     47       9.4663      0.00000
     48       9.4663      0.00000
     49      13.7046      0.00000
     50      13.7046      0.00000
     51      13.7046      0.00000
     52      13.7047      0.00000
     53      13.7047      0.00000
     54      13.7047      0.00000
     55      17.6007      0.00000
     56      17.6007      0.00000
     57      17.6007      0.00000
     58      17.6007      0.00000
     59      17.6007      0.00000
     60      17.6007      0.00000
[...]
     82      27.3860      0.00000
     83      27.3860      0.00000
     84      27.3860      0.00000
     85      27.3860      0.00000
     86      27.3860      0.00000
     87      31.3634      0.00000
     88      31.3635      0.00000
     89      34.2207      0.00000
     90      34.2207      0.00000
     91      35.1280      0.00000
     92      35.1280      0.00000
     93      35.1280      0.00000
     94      35.1280      0.00000
     95      35.4422      0.00000
     96      35.4422      0.00000

[...]

 k-point    90 :       0.5000    0.5000    0.5000
  band No.  band energies     occupation
      1       1.5828      1.00000
      2       1.5828      1.00000
      3       1.5828      1.00000
      4       1.5828      1.00000
      5       1.5828      1.00000
      6       1.5828      1.00000
      7       1.5828      1.00000
      8       1.5828      1.00000
      9       3.3308      1.00000
     10       3.3308      1.00000
     11       3.3308      1.00000
     12       3.3308      1.00000
     13       3.3308      1.00000
     14       3.3308      1.00000
     15       3.3308      1.00000
     16       3.3308      1.00000
     17       4.5079      1.00000
     18       4.5079      1.00000
     19       4.5079      1.00000
     20       4.5079      1.00000
     21       4.5079      1.00000
     22       4.5079      1.00000
     23       4.5079      1.00000
     24       4.5079      1.00000
     25       6.1910      1.00000
     26       6.1910      1.00000
     27       6.1910      1.00000
     28       6.1910      1.00000
     29       6.1910      1.00000
     30       6.1910      1.00000
     31       6.1910      1.00000
     32       6.1910      1.00000
     33       6.8858      1.00000
     34       6.8858      1.00000
     35       6.8858      1.00000
     36       6.8858      1.00000
     37       6.8858      1.00000
     38       6.8858      1.00000
     39       6.8858      1.00000
     40       6.8858      1.00000
     41       7.6746      1.00000
     42       7.6746      1.00000
     43       7.6746      1.00000
     44       7.6746      1.00000
     45       7.6746      1.00000
     46       7.6746      1.00000
     47       7.6746      1.00000
     48       7.6746      1.00000
     49      11.2123      0.00000
     50      11.2123      0.00000
     51      11.2123      0.00000
     52      11.2123      0.00000
     53      11.2123      0.00000
     54      11.2123      0.00000
     55      11.2123      0.00000
     56      11.2123      0.00000
     57      22.4373      0.00000
     58      22.4373      0.00000
     59      22.4373      0.00000
     60      22.4373      0.00000
[...]
     82      32.1364      0.00000
     83      32.1364      0.00000
     84      32.1364      0.00000
     85      32.1364      0.00000
     86      32.1364      0.00000
     87      32.1364      0.00000
     88      32.1364      0.00000
     89      32.6587      0.00000
     90      32.6587      0.00000
     91      32.6587      0.00000
     92      32.6587      0.00000
     93      32.6587      0.00000
     94      32.6587      0.00000
     95      32.6587      0.00000
     96      32.6587      0.00000

 soft charge-density along one line, spin component           1
         0         1         2         3         4         5         6         7         8         9
 total charge-density along one line

[...]

 soft charge-density along one line, spin component           4
         0         1         2         3         4         5         6         7         8         9
 total charge-density along one line

------------------------ aborting loop because EDIFF is reached ----------------------------------------

  FORCE on cell =-STRESS in cart. coord.  units (eV):
  Direction    XX          YY          ZZ          XY          YZ          ZX
  Alpha Z   256.26030   256.26030   256.26030
  Ewald   -1275.89168 -1275.89168 -1275.89168    -0.00000     0.00000     0.00000
  Hartree   161.21830   161.21830   161.21830     0.00000     0.00000     0.00000
  E(xc)    -197.87416  -197.87416  -197.87416     0.00000     0.00000     0.00000
  Local     175.11543   175.11543   175.11543     0.00000     0.00000     0.00000
  n-local     2.02416    -1.99347   -10.29680    -1.46801     3.87460    -2.40660
  augment   271.00472   271.00472   271.00472    -0.00000    -0.00000    -0.00000
  Kinetic   613.85933   612.92756   609.48029     0.70741    -1.98725     1.27984
  Fock        0.00000     0.00000     0.00000     0.00000     0.00000     0.00000
  Total      -1.50007    -1.50007    -1.50007    -0.00000    -0.00000    -0.00000
  in kB     -33.04713   -33.04713   -33.04713    -0.00007    -0.00007    -0.00007

 VOLUME and BASIS-vectors are now :
  energy-cutoff  :      298.93
  volume of cell :       72.73
      direct lattice vectors                 reciprocal lattice vectors
     4.174100000  0.000000000  0.000000000     0.239572602 -0.000000000  0.000000000
     0.000000000  4.174100000  0.000000000     0.000000000  0.239572602  0.000000000
     0.000000000  0.000000000  4.174100000    -0.000000000 -0.000000000  0.239572602

  length of vectors
     4.174100000  4.174100000  4.174100000     0.239572602  0.239572602  0.239572602

 FORCES acting on ions
    electron-ion (+dipol)            ewald-force                    non-local-force                 convergence-correction
   -.173E-13 -.193E-13 -.198E-13   0.573E-14 -.363E-14 -.964E-14   0.248E-22 -.319E-22 0.324E-22   0.996E-14 0.123E-13 0.172E-14
   -.202E-13 0.233E-12 0.237E-12   0.571E-14 0.105E-14 0.522E-14   -.601E-22 0.961E-23 0.145E-22   0.677E-14 -.377E-14 0.307E-14
   0.233E-12 -.205E-13 0.239E-12   -.528E-14 -.272E-15 0.219E-14   0.320E-22 -.333E-22 0.863E-23   -.473E-14 0.987E-14 0.179E-14
   0.230E-12 0.233E-12 -.203E-13   -.530E-14 0.440E-14 0.161E-15   -.315E-24 0.370E-22 -.153E-22   -.213E-14 0.356E-14 0.105E-14
   0.426E-12 0.426E-12 0.436E-12   0.850E-15 0.155E-14 -.207E-14   -.365E-23 -.186E-22 0.402E-22   0.987E-14 0.220E-13 0.762E-14

 POSITION                                       TOTAL-FORCE (eV/Angst)
      0.00000      0.00000      0.00000         0.000000      0.000000     -0.000000
      0.00000      2.08705      2.08705        -0.000000     -0.000000      0.000000
      2.08705      0.00000      2.08705         0.000000      0.000000     -0.000000
      2.08705      2.08705      0.00000        -0.000000     -0.000000      0.000000
    total drift:                                0.000000      0.000000      0.000000

  FREE ENERGIE OF THE ION-ELECTRON SYSTEM (eV)
  free  energy   TOTEN  =       -14.03128561 eV

  energy  without entropy=      -14.02870634  energy(sigma->0) =      -14.02999598

 writing wavefunctions

 Spin-Orbit-Coupling matrix elements

 Ion:    1  E_soc:     -0.5682471
 l=   1
     0.0000000    -0.0234493    -0.0234493
    -0.0234493     0.0000000    -0.0234493
    -0.0234493    -0.0234493     0.0000000
 l=   2
     0.0000000    -0.0155407     0.0000000    -0.0155407    -0.0557179
    -0.0155407     0.0000000    -0.0417884    -0.0155407    -0.0139295
     0.0000000    -0.0417884     0.0000000    -0.0417884     0.0000000
    -0.0155407    -0.0155407    -0.0417884     0.0000000    -0.0139295
    -0.0557179    -0.0139295     0.0000000    -0.0139295     0.0000000
 l=   3
     0.0000000     0.0000000     0.0000000     0.0000000     0.0000000     0.0000000     0.0000000
     0.0000000     0.0000000     0.0000000     0.0000000     0.0000000     0.0000000     0.0000000
     0.0000000     0.0000000     0.0000000     0.0000000     0.0000000     0.0000000     0.0000000
     0.0000000     0.0000000     0.0000000     0.0000000     0.0000000     0.0000000     0.0000000
     0.0000000     0.0000000     0.0000000     0.0000000     0.0000000     0.0000000     0.0000000
     0.0000000     0.0000000     0.0000000     0.0000000     0.0000000     0.0000000     0.0000000
     0.0000000     0.0000000     0.0000000     0.0000000     0.0000000     0.0000000     0.0000000

[...]

 Ion:    4  E_soc:     -0.5682471
 l=   1
     0.0000000    -0.0234493    -0.0234493
    -0.0234493     0.0000000    -0.0234493
    -0.0234493    -0.0234493     0.0000000
 l=   2
     0.0000000    -0.0155407     0.0000000    -0.0155407    -0.0557179
    -0.0155407     0.0000000    -0.0417884    -0.0155407    -0.0139295
     0.0000000    -0.0417884     0.0000000    -0.0417884     0.0000000
    -0.0155407    -0.0155407    -0.0417884     0.0000000    -0.0139295
    -0.0557179    -0.0139295     0.0000000    -0.0139295     0.0000000
 l=   3
     0.0000000     0.0000000     0.0000000     0.0000000     0.0000000     0.0000000     0.0000000
     0.0000000     0.0000000     0.0000000     0.0000000     0.0000000     0.0000000     0.0000000
     0.0000000     0.0000000     0.0000000     0.0000000     0.0000000     0.0000000     0.0000000
     0.0000000     0.0000000     0.0000000     0.0000000     0.0000000     0.0000000     0.0000000
     0.0000000     0.0000000     0.0000000     0.0000000     0.0000000     0.0000000     0.0000000
     0.0000000     0.0000000     0.0000000     0.0000000     0.0000000     0.0000000     0.0000000
     0.0000000     0.0000000     0.0000000     0.0000000     0.0000000     0.0000000     0.0000000