 vasp.6.4.3 19Mar24 (build Jun 26 2024 13:02:28) complex

 executed on             LinuxIFC date 2025.08.08  18:16:26

 INCAR:
   ENCUT = 289.458
   IBRION = -1
   ISMEAR = 0
   ISYM = 2
   LCHARG = True
   LWAVE = True
   SIGMA = 0.05
   SYSTEM = Sc

 POTCAR:  PAW_PBE Sc_sv 07Sep2000
|           W    W    AA    RRRRR   N    N  II  N    N   GGGG   !!!           |
|           W    W   A  A   R    R  NN   N  II  NN   N  G    G  !!!           |
|           W    W  A    A  R    R  N N  N  II  N N  N  G       !!!           |
|           W WW W  AAAAAA  RRRRR   N  N N  II  N  N N  G  GGG   !            |
|           WW  WW  A    A  R   R   N   NN  II  N   NN  G    G                |
|           W    W  A    A  R    R  N    N  II  N    N   GGGG   !!!           |
|     For optimal performance we recommend to set                             |
|       NCORE = 2 up to number-of-cores-per-socket                            |
|     This setting can greatly improve the performance of VASP for DFT.       |
|     The default, NCORE=1 might be grossly inefficient on modern             |
|     multi-core architectures or massively parallel machines. Do your        |
|     Unfortunately you need to use the default for GW and RPA                |
|     calculations (for HF NCORE is supported but not extensively tested      |
|     yet).                                                                   |

 POTCAR:  PAW_PBE Sc_sv 07Sep2000
   VRHFIN =Sc: 3p4s3d

   TITEL  = PAW_PBE Sc_sv 07Sep2000
   POMASS =   44.956; ZVAL   =   11.000    mass and valenz
   ENMAX  =  222.660; ENMIN  =  166.995 eV

PAW_PBE Sc_sv 07Sep2000                 :

 POSCAR: Sc2
  positions in direct lattice

 exchange-correlation table for PE
   RHO(1)=    0.500       N(1)  =     2000
   RHO(2)=  100.500       N(2)  =     4000

 ion  position               nearest neighbor table
   1  0.000  0.000  0.000-   2 3.22   2 3.22   2 3.22   2 3.22   2 3.22   2 3.22
   2  0.333  0.333  0.500-   1 3.22   1 3.22   1 3.22   1 3.22   1 3.22   1 3.22

  LATTYP: Found a hexagonal cell.
 ALAT       =     3.3214500000
 C/A-ratio  =     1.5541164251

  Lattice vectors:

 A1 = (  -1.6607250000,  -2.8764600774,   0.0000000000)
 A2 = (   3.3214500000,   0.0000000000,   0.0000000000)
 A3 = (   0.0000000000,   0.0000000000,   5.1619200000)

Analysis of symmetry for initial positions (statically):
 Subroutine PRICEL returns:
 Original cell was already a primitive cell.

 Routine SETGRP: Setting up the symmetry group for a
 hexagonal supercell.

 Subroutine GETGRP returns: Found 24 space group operations
 (whereof 12 operations were pure point group operations)
 out of a pool of 24 trial point group operations.

The static configuration has the point symmetry D_3h.
 The point group associated with its full space group is D_6h.

Analysis of symmetry for dynamics (positions and initial velocities):
 Subroutine PRICEL returns:
 Original cell was already a primitive cell.

 Routine SETGRP: Setting up the symmetry group for a
 hexagonal supercell.

 Subroutine GETGRP returns: Found 24 space group operations
 (whereof 12 operations were pure point group operations)
 out of a pool of 24 trial point group operations.

The dynamic configuration has the point symmetry D_3h.
 The point group associated with its full space group is D_6h.

 Subroutine INISYM returns: Found 24 space group operations
 (whereof 12 operations are pure point group operations),
 and found     1 'primitive' translations

                                     Primitive cell

  volume of cell :      49.3171

  direct lattice vectors                    reciprocal lattice vectors
     3.321450000  0.000000000  0.000000000     0.301073326 -0.173824766  0.000000000
     1.660725000  2.876460077  0.000000000     0.000000000  0.347649532  0.000000000
     0.000000000  0.000000000  5.161920000    -0.000000000 -0.000000000  0.193726365

  length of vectors
     3.321450000  3.321450000  5.161920000     0.347649532  0.347649532  0.193726365

  position of ions in fractional coordinates (direct lattice)
     0.000000000  0.000000000  0.000000000
     0.333333333  0.333333333  0.500000000

  ion indices of the primitive-cell ions
   primitive index   ion index
                 1           1
                 2           2

 KPOINTS: Automatic kpoint scheme

Automatic generation of k-mesh.
 Grid dimensions read from file:
 generate k-points for:   12   12   12

 Generating k-lattice:

  Cartesian coordinates                     Fractional coordinates (reciprocal lattice)
     0.025089444 -0.014485397  0.000000000     0.083333333  0.000000000  0.000000000
     0.000000000  0.028970794  0.000000000     0.000000000  0.083333333  0.000000000
    -0.000000000 -0.000000000  0.016143864     0.000000000  0.000000000  0.083333333

  Length of vectors
     0.028970794  0.028970794  0.016143864

  Shift w.r.t. Gamma in fractional coordinates (k-lattice)
     0.000000000  0.000000000  0.000000000

 Subroutine IBZKPT returns following result:

 Found    133 irreducible k-points:

 Following reciprocal coordinates:
            Coordinates               Weight
  0.000000  0.000000  0.000000      1.000000
  0.083333 -0.000000  0.000000      6.000000
  0.166667  0.000000  0.000000      6.000000
  0.250000 -0.000000  0.000000      6.000000
  0.333333 -0.000000  0.000000      6.000000
  0.416667 -0.000000  0.000000      6.000000
  0.500000 -0.000000  0.000000      3.000000
  0.166667  0.083333  0.000000      6.000000
  0.250000  0.083333  0.000000     12.000000
  0.333333  0.083333  0.000000     12.000000
  0.416667  0.083333  0.000000     12.000000
  0.500000  0.083333  0.000000     12.000000
  0.333333  0.166667  0.000000      6.000000
  0.416667  0.166667  0.000000     12.000000
  0.500000  0.166667  0.000000     12.000000
 -0.416667  0.166667  0.000000      6.000000
  0.500000  0.250000  0.000000      6.000000
 -0.416667  0.250000  0.000000     12.000000
 -0.333333  0.333333  0.000000      2.000000
 -0.000000  0.000000  0.083333      2.000000
  0.083333  0.000000  0.083333     12.000000
  0.166667  0.000000  0.083333     12.000000
  0.250000 -0.000000  0.083333     12.000000
  0.333333 -0.000000  0.083333     12.000000
  0.416667 -0.000000  0.083333     12.000000
  0.500000 -0.000000  0.083333      6.000000
  0.166667  0.083333  0.083333     12.000000
  0.250000  0.083333  0.083333     24.000000
  0.333333  0.083333  0.083333     24.000000
  0.416667  0.083333  0.083333     24.000000
  0.500000  0.083333  0.083333     24.000000
  0.333333  0.166667  0.083333     12.000000
  0.416667  0.166667  0.083333     24.000000
  0.500000  0.166667  0.083333     24.000000
 -0.416667  0.166667  0.083333     12.000000
  0.500000  0.250000  0.083333     12.000000
 -0.416667  0.250000  0.083333     24.000000
 -0.333333  0.333333  0.083333      4.000000
 -0.000000  0.000000  0.166667      2.000000
  0.083333  0.000000  0.166667     12.000000
  0.166667  0.000000  0.166667     12.000000
  0.250000  0.000000  0.166667     12.000000
  0.333333  0.000000  0.166667     12.000000
  0.416667  0.000000  0.166667     12.000000
  0.500000 -0.000000  0.166667      6.000000
  0.166667  0.083333  0.166667     12.000000
  0.250000  0.083333  0.166667     24.000000
  0.333333  0.083333  0.166667     24.000000
  0.416667  0.083333  0.166667     24.000000
  0.500000  0.083333  0.166667     24.000000
  0.333333  0.166667  0.166667     12.000000
  0.416667  0.166667  0.166667     24.000000
  0.500000  0.166667  0.166667     24.000000
 -0.416667  0.166667  0.166667     12.000000
  0.500000  0.250000  0.166667     12.000000
 -0.416667  0.250000  0.166667     24.000000
 -0.333333  0.333333  0.166667      4.000000
 -0.000000  0.000000  0.250000      2.000000
  0.083333 -0.000000  0.250000     12.000000
  0.166667  0.000000  0.250000     12.000000
[...]
  0.333333  0.000000  0.500000      6.000000
  0.416667  0.000000  0.500000      6.000000
  0.500000  0.000000  0.500000      3.000000
  0.166667  0.083333  0.500000      6.000000
  0.250000  0.083333  0.500000     12.000000
  0.333333  0.083333  0.500000     12.000000
  0.416667  0.083333  0.500000     12.000000
  0.500000  0.083333  0.500000     12.000000
  0.333333  0.166667  0.500000      6.000000
  0.416667  0.166667  0.500000     12.000000
  0.500000  0.166667  0.500000     12.000000
 -0.416667  0.166667  0.500000      6.000000
  0.500000  0.250000  0.500000      6.000000
 -0.416667  0.250000  0.500000     12.000000
 -0.333333  0.333333  0.500000      2.000000

 Following cartesian coordinates:
            Coordinates               Weight
  0.000000  0.000000  0.000000      1.000000
  0.025089 -0.014485  0.000000      6.000000
  0.050179 -0.028971  0.000000      6.000000
  0.075268 -0.043456  0.000000      6.000000
  0.100358 -0.057942  0.000000      6.000000
  0.125447 -0.072427  0.000000      6.000000
  0.150537 -0.086912  0.000000      3.000000
  0.050179  0.000000  0.000000      6.000000
  0.075268 -0.014485  0.000000     12.000000
  0.100358 -0.028971  0.000000     12.000000
  0.125447 -0.043456  0.000000     12.000000
  0.150537 -0.057942  0.000000     12.000000
  0.100358 -0.000000  0.000000      6.000000
  0.125447 -0.014485  0.000000     12.000000
  0.150537 -0.028971  0.000000     12.000000
 -0.125447  0.130369  0.000000      6.000000
  0.150537 -0.000000  0.000000      6.000000
 -0.125447  0.159339  0.000000     12.000000
 -0.100358  0.173825  0.000000      2.000000
 -0.000000 -0.000000  0.016144      2.000000
  0.025089 -0.014485  0.016144     12.000000
  0.050179 -0.028971  0.016144     12.000000
  0.075268 -0.043456  0.016144     12.000000
  0.100358 -0.057942  0.016144     12.000000
  0.125447 -0.072427  0.016144     12.000000
  0.150537 -0.086912  0.016144      6.000000
  0.050179  0.000000  0.016144     12.000000
  0.075268 -0.014485  0.016144     24.000000
  0.100358 -0.028971  0.016144     24.000000
  0.125447 -0.043456  0.016144     24.000000
  0.150537 -0.057942  0.016144     24.000000
  0.100358 -0.000000  0.016144     12.000000
  0.125447 -0.014485  0.016144     24.000000
  0.150537 -0.028971  0.016144     24.000000
 -0.125447  0.130369  0.016144     12.000000
  0.150537 -0.000000  0.016144     12.000000
 -0.125447  0.159339  0.016144     24.000000
 -0.100358  0.173825  0.016144      4.000000
 -0.000000 -0.000000  0.032288      2.000000
  0.025089 -0.014485  0.032288     12.000000
  0.050179 -0.028971  0.032288     12.000000
  0.075268 -0.043456  0.032288     12.000000
  0.100358 -0.057942  0.032288     12.000000
  0.125447 -0.072427  0.032288     12.000000
  0.150537 -0.086912  0.032288      6.000000
  0.050179  0.000000  0.032288     12.000000
  0.075268 -0.014485  0.032288     24.000000
  0.100358 -0.028971  0.032288     24.000000
  0.125447 -0.043456  0.032288     24.000000
  0.150537 -0.057942  0.032288     24.000000
  0.100358 -0.000000  0.032288     12.000000
  0.125447 -0.014485  0.032288     24.000000
  0.150537 -0.028971  0.032288     24.000000
 -0.125447  0.130369  0.032288     12.000000
  0.150537 -0.000000  0.032288     12.000000
 -0.125447  0.159339  0.032288     24.000000
 -0.100358  0.173825  0.032288      4.000000
 -0.000000 -0.000000  0.048432      2.000000
[...]
  -0.41666667  0.16666667  0.08333333       0.007
   0.50000000  0.25000000  0.08333333       0.007
  -0.41666667  0.25000000  0.08333333       0.014
  -0.33333333  0.33333333  0.08333333       0.002
  -0.00000000  0.00000000  0.16666667       0.001
   0.08333333  0.00000000  0.16666667       0.007
   0.16666667  0.00000000  0.16666667       0.007
   0.25000000  0.00000000  0.16666667       0.007
   0.33333333  0.00000000  0.16666667       0.007
   0.41666667  0.00000000  0.16666667       0.007
   0.50000000 -0.00000000  0.16666667       0.003
   0.16666667  0.08333333  0.16666667       0.007
   0.25000000  0.08333333  0.16666667       0.014
   0.33333333  0.08333333  0.16666667       0.014
   0.41666667  0.08333333  0.16666667       0.014
   0.50000000  0.08333333  0.16666667       0.014
   0.33333333  0.16666667  0.16666667       0.007
   0.41666667  0.16666667  0.16666667       0.014
   0.50000000  0.16666667  0.16666667       0.014
  -0.41666667  0.16666667  0.16666667       0.007
   0.50000000  0.25000000  0.16666667       0.007
  -0.41666667  0.25000000  0.16666667       0.014
  -0.33333333  0.33333333  0.16666667       0.002
  -0.00000000  0.00000000  0.25000000       0.001
   0.08333333 -0.00000000  0.25000000       0.007
   0.16666667  0.00000000  0.25000000       0.007
[...]
   0.33333333  0.00000000  0.50000000       0.003
   0.41666667  0.00000000  0.50000000       0.003
   0.50000000  0.00000000  0.50000000       0.002
   0.16666667  0.08333333  0.50000000       0.003
   0.25000000  0.08333333  0.50000000       0.007
   0.33333333  0.08333333  0.50000000       0.007
   0.41666667  0.08333333  0.50000000       0.007
   0.50000000  0.08333333  0.50000000       0.007
   0.33333333  0.16666667  0.50000000       0.003
   0.41666667  0.16666667  0.50000000       0.007
   0.50000000  0.16666667  0.50000000       0.007
  -0.41666667  0.16666667  0.50000000       0.003
   0.50000000  0.25000000  0.50000000       0.003
  -0.41666667  0.25000000  0.50000000       0.007
  -0.33333333  0.33333333  0.50000000       0.001

 position of ions in fractional coordinates (direct lattice)
   0.00000000  0.00000000  0.00000000
   0.33333333  0.33333333  0.50000000

 position of ions in cartesian coordinates  (Angst):
   0.00000000  0.00000000  0.00000000
   1.66072500  0.95882003  2.58096000

 k-point     1 :   0.0000 0.0000 0.0000  plane waves:     561
 k-point     2 :   0.0833-0.0000 0.0000  plane waves:     554
 k-point     3 :   0.1667 0.0000 0.0000  plane waves:     562
 k-point     4 :   0.2500-0.0000 0.0000  plane waves:     554
 k-point     5 :   0.3333-0.0000 0.0000  plane waves:     548
 k-point     6 :   0.4167-0.0000 0.0000  plane waves:     550
 k-point     7 :   0.5000-0.0000 0.0000  plane waves:     548
 k-point     8 :   0.1667 0.0833 0.0000  plane waves:     555
 k-point     9 :   0.2500 0.0833 0.0000  plane waves:     560
 k-point    10 :   0.3333 0.0833 0.0000  plane waves:     556
 k-point    11 :   0.4167 0.0833 0.0000  plane waves:     553
 k-point    12 :   0.5000 0.0833 0.0000  plane waves:     545
 k-point    13 :   0.3333 0.1667 0.0000  plane waves:     555
 k-point    14 :   0.4167 0.1667 0.0000  plane waves:     546
 k-point    15 :   0.5000 0.1667 0.0000  plane waves:     546
 k-point    16 :  -0.4167 0.1667 0.0000  plane waves:     536
 k-point    17 :   0.5000 0.2500 0.0000  plane waves:     549
 k-point    18 :  -0.4167 0.2500 0.0000  plane waves:     546
 k-point    19 :  -0.3333 0.3333 0.0000  plane waves:     546
 k-point    20 :  -0.0000 0.0000 0.0833  plane waves:     555
 k-point    21 :   0.0833 0.0000 0.0833  plane waves:     559
 k-point    22 :   0.1667 0.0000 0.0833  plane waves:     562
 k-point    23 :   0.2500-0.0000 0.0833  plane waves:     555
 k-point    24 :   0.3333-0.0000 0.0833  plane waves:     552
 k-point    25 :   0.4167-0.0000 0.0833  plane waves:     552
 k-point    26 :   0.5000-0.0000 0.0833  plane waves:     550
 k-point    27 :   0.1667 0.0833 0.0833  plane waves:     561
 k-point    28 :   0.2500 0.0833 0.0833  plane waves:     560
 k-point    29 :   0.3333 0.0833 0.0833  plane waves:     553
 k-point    30 :   0.4167 0.0833 0.0833  plane waves:     552
 k-point    31 :   0.5000 0.0833 0.0833  plane waves:     548
 k-point    32 :   0.3333 0.1667 0.0833  plane waves:     551
 k-point    33 :   0.4167 0.1667 0.0833  plane waves:     547
 k-point    34 :   0.5000 0.1667 0.0833  plane waves:     547
 k-point    35 :  -0.4167 0.1667 0.0833  plane waves:     544
 k-point    36 :   0.5000 0.2500 0.0833  plane waves:     546
 k-point    37 :  -0.4167 0.2500 0.0833  plane waves:     542
 k-point    38 :  -0.3333 0.3333 0.0833  plane waves:     549
 k-point    39 :  -0.0000 0.0000 0.1667  plane waves:     554
 k-point    40 :   0.0833 0.0000 0.1667  plane waves:     561
 k-point    41 :   0.1667 0.0000 0.1667  plane waves:     562
 k-point    42 :   0.2500 0.0000 0.1667  plane waves:     558
 k-point    43 :   0.3333 0.0000 0.1667  plane waves:     553
 k-point    44 :   0.4167 0.0000 0.1667  plane waves:     547
 k-point    45 :   0.5000-0.0000 0.1667  plane waves:     548
 k-point    46 :   0.1667 0.0833 0.1667  plane waves:     560
 k-point    47 :   0.2500 0.0833 0.1667  plane waves:     556
 k-point    48 :   0.3333 0.0833 0.1667  plane waves:     555
 k-point    49 :   0.4167 0.0833 0.1667  plane waves:     548
 k-point    50 :   0.5000 0.0833 0.1667  plane waves:     547
 k-point    51 :   0.3333 0.1667 0.1667  plane waves:     554
 k-point    52 :   0.4167 0.1667 0.1667  plane waves:     546
 k-point    53 :   0.5000 0.1667 0.1667  plane waves:     545
 k-point    54 :  -0.4167 0.1667 0.1667  plane waves:     546
 k-point    55 :   0.5000 0.2500 0.1667  plane waves:     543
 k-point    56 :  -0.4167 0.2500 0.1667  plane waves:     542
 k-point    57 :  -0.3333 0.3333 0.1667  plane waves:     546
 k-point    58 :  -0.0000 0.0000 0.2500  plane waves:     548
 k-point    59 :   0.0833-0.0000 0.2500  plane waves:     561
 k-point    60 :   0.1667 0.0000 0.2500  plane waves:     560
[...]
 k-point   119 :   0.3333 0.0000 0.5000  plane waves:     552
 k-point   120 :   0.4167 0.0000 0.5000  plane waves:     540
 k-point   121 :   0.5000 0.0000 0.5000  plane waves:     540
 k-point   122 :   0.1667 0.0833 0.5000  plane waves:     554
 k-point   123 :   0.2500 0.0833 0.5000  plane waves:     558
 k-point   124 :   0.3333 0.0833 0.5000  plane waves:     554
 k-point   125 :   0.4167 0.0833 0.5000  plane waves:     548
 k-point   126 :   0.5000 0.0833 0.5000  plane waves:     556
 k-point   127 :   0.3333 0.1667 0.5000  plane waves:     552
 k-point   128 :   0.4167 0.1667 0.5000  plane waves:     558
 k-point   129 :   0.5000 0.1667 0.5000  plane waves:     552
 k-point   130 :  -0.4167 0.1667 0.5000  plane waves:     554
 k-point   131 :   0.5000 0.2500 0.5000  plane waves:     558
 k-point   132 :  -0.4167 0.2500 0.5000  plane waves:     552
 k-point   133 :  -0.3333 0.3333 0.5000  plane waves:     546

 maximum and minimum number of plane-waves per node :       562      534

 maximum number of plane-waves:       562
 maximum index in each direction:
   IXMAX=    5   IYMAX=    4   IZMAX=    7
   IXMIN=   -5   IYMIN=   -4   IZMIN=   -7

 serial   3D FFT for wavefunctions
 parallel 3D FFT for charge:
    minimum data exchange during FFTs selected (reduces bandwidth)

 Broyden mixing: mesh for mixing (old mesh)
   NGX =  9   NGY =  9   NGZ = 15
  (NGX  = 28   NGY  = 28   NGZ  = 48)
  gives a total of   1215 points

 charge density for first step will be calculated from the start-wavefunctions

 Maximum index for augmentation-charges          291 (set IRDMAX)

 initial charge from wavefunction
 First call to EWALD:  gamma=   0.483
 Maximum number of real-space cells 3x 3x 2
 Maximum number of reciprocal cells 3x 3x 4

--------------------------------------- Ionic step        1  -------------------------------------------

--------------------------------------- Iteration      1(   1)  ---------------------------------------

 eigenvalue-minimisations  :  6384
 total energy-change (2. order) :-0.1249871E+02  (-0.9798515E-06)
 number of electron      22.0000016 magnetization
 augmentation part        6.2030907 magnetization

 Broyden mixing:
  rms(total) = 0.47450E-03    rms(broyden)= 0.47103E-03
  rms(prec ) = 0.80472E-03
  weight for this iteration     100.00

 Free energy of the ion-electron system (eV)
  alpha Z        PSCENC =       120.55047640
  Ewald energy   TEWEN  =     -1728.32058351
  -Hartree energ DENC   =      -602.69516958
  -exchange      EXHF   =         0.00000000
  -V(xc)+E(xc)   XCENC  =       100.14323423
  PAW double counting   =      2144.86116515    -2133.28981418
  entropy T*S    EENTRO =        -0.00507670
  eigenvalues    EBANDS =      -460.24497379
  atomic energy  EATOM  =      2546.50203649
  Solvation  Ediel_sol  =         0.00000000
  free energy    TOTEN  =       -12.49870549 eV

  energy without entropy =      -12.49362879  energy(sigma->0) =      -12.49616714

--------------------------------------- Iteration      1(   2)  ---------------------------------------

 eigenvalue-minimisations  :  6384
 total energy-change (2. order) : 0.3197051E-06  (-0.1708013E-06)
 number of electron      22.0000016 magnetization
 augmentation part        6.2030907 magnetization

 Free energy of the ion-electron system (eV)
  alpha Z        PSCENC =       120.55047640
  Ewald energy   TEWEN  =     -1728.32058351
  -Hartree energ DENC   =      -602.71513728
  -exchange      EXHF   =         0.00000000
  -V(xc)+E(xc)   XCENC  =       100.14429010
  PAW double counting   =      2144.82419493    -2133.25217771
  entropy T*S    EENTRO =        -0.00507533
  eigenvalues    EBANDS =      -460.22672926
  atomic energy  EATOM  =      2546.50203649
  Solvation  Ediel_sol  =         0.00000000
  free energy    TOTEN  =       -12.49870517 eV

  energy without entropy =      -12.49362983  energy(sigma->0) =      -12.49616750

 average (electrostatic) potential at core
  the test charge radii are     1.0854
  (the norm of the test charge is              1.0000)
       1 -47.2509       2 -47.2509

 E-fermi :   3.6769     XC(G=0):  -9.8754     alpha+bet :-10.5424

 val. band max:        3.6737886562   @ k =   0.5000   0.0000   0.4167
 cond. band min:       3.6817112052   @ k =   0.5000   0.0833   0.4167
 fundamental gap:      0.0079225490
 Fermi energy:         3.6769060683

 k-point     1 :       0.0000    0.0000    0.0000
  band No.  band energies     occupation
      1     -45.7244      2.00000
      2     -45.6529      2.00000
      3     -24.5654      2.00000
      4     -24.2296      2.00000
      5     -24.2296      2.00000
      6     -24.1628      2.00000
      7     -24.1627      2.00000
      8     -24.1297      2.00000
      9      -1.4494      2.00000
     10       2.0500      2.00000
     11       4.3081      0.00000
     12       5.2666      0.00000
     13       5.2666      0.00000
     14       5.5430      0.00000
     15       5.7185      0.00000
     16       5.7185      0.00000
     17       5.9806      0.00000
     18       5.9806      0.00000
     19       7.3232      0.00000
     20       7.3232      0.00000
     21      10.7539      0.00000
     22      15.6277      0.00000
     23      17.8591      0.00000
     24      18.2601      0.00000
     25      18.6785      0.00000
     26      18.6785      0.00000
     27      20.0090      0.00000
     28      20.0090      0.00000
     29      21.1223      0.00000
     30      21.1223      0.00000
     31      21.6058      0.00000
     32      24.3336      0.00000
     33      24.3336      0.00000
     34      24.3382      0.00000
     35      25.7053      0.00000
     36      26.1682      0.00000
     37      26.1682      0.00000
     38      26.8882      0.00000
     39      26.8883      0.00000
     40      28.3632      0.00000
     41      33.2756      0.00000
     42      37.3501      0.00000
     43      37.3502      0.00000
     44      37.4422      0.00000
     45      37.4423      0.00000
     46      37.4784      0.00000
     47      37.4784      0.00000
     48      40.7734      0.00000

[...]

 k-point   133 :      -0.3333    0.3333    0.5000
  band No.  band energies     occupation
      1     -45.6530      2.00000
      2     -45.6530      2.00000
      3     -24.4771      2.00000
      4     -24.4771      2.00000
      5     -24.3717      2.00000
      6     -24.3717      2.00000
      7     -24.2037      2.00000
      8     -24.2037      2.00000
      9       3.2732      2.00000
     10       3.2732      2.00000
     11       3.5497      1.99968
     12       3.5497      1.99968
     13       3.9416      0.00000
     14       3.9416      0.00000
     15       6.0728      0.00000
     16       6.0728      0.00000
     17       7.2788      0.00000
     18       7.2788      0.00000
     19       9.4657      0.00000
     20       9.4657      0.00000
     21      10.7994      0.00000
     22      10.7994      0.00000
     23      11.2417      0.00000
     24      11.2417      0.00000
     25      18.2189      0.00000
     26      18.2189      0.00000
     27      18.5881      0.00000
     28      18.5881      0.00000
     29      20.8703      0.00000
     30      20.8703      0.00000
     31      25.7152      0.00000
     32      25.7152      0.00000
     33      25.9224      0.00000
     34      25.9225      0.00000
     35      27.9832      0.00000
     36      27.9833      0.00000
     37      33.4982      0.00000
     38      33.4982      0.00000
     39      34.4475      0.00000
     40      34.4475      0.00000
     41      34.6349      0.00000
     42      34.6349      0.00000
     43      37.3640      0.00000
     44      37.3641      0.00000
     45      37.8664      0.00000
     46      37.8665      0.00000
     47      38.1143      0.00000
     48      38.1143      0.00000

 soft charge-density along one line, spin component           1
         0         1         2         3         4         5         6         7         8         9
 total charge-density along one line

------------------------ aborting loop because EDIFF is reached ----------------------------------------

  FORCE on cell =-STRESS in cart. coord.  units (eV):
  Direction    XX          YY          ZZ          XY          YZ          ZX
  Alpha Z   120.55048   120.55048   120.55048
  Ewald    -587.46317  -587.46317  -553.39545    -0.00000     0.00000     0.00000
  Hartree   194.66280   194.66280   213.40269     0.00000    -0.00000    -0.00000
  E(xc)    -104.52394  -104.52397  -104.46166     0.00002    -0.00001    -0.00002
  Local     150.58009   150.57996    98.26837     0.00011    -0.00003    -0.00005
  n-local  -106.85491  -101.04953  -104.41979     2.80152    -0.15923     0.23281
  augment    56.89953    56.89954    56.94544    -0.00000     0.00002     0.00003
  Kinetic   276.12027   270.06780   273.00400    -2.03286    -0.62847    -0.12820
  Fock        0.00000     0.00000     0.00000     0.00000     0.00000     0.00000
  Total      -0.15247    -0.15247    -0.10592    -0.00000    -0.00000    -0.00000
  in kB      -4.95345    -4.95345    -3.44099    -0.00000    -0.00000    -0.00000

 VOLUME and BASIS-vectors are now :
  energy-cutoff  :      289.46
  volume of cell :       49.32
      direct lattice vectors                 reciprocal lattice vectors
     3.321450000  0.000000000  0.000000000     0.301073326 -0.173824766  0.000000000
     1.660725000  2.876460077  0.000000000     0.000000000  0.347649532  0.000000000
     0.000000000  0.000000000  5.161920000    -0.000000000 -0.000000000  0.193726365

  length of vectors
     3.321450000  3.321450000  5.161920000     0.347649532  0.347649532  0.193726365

 FORCES acting on ions
    electron-ion (+dipol)            ewald-force                    non-local-force                 convergence-correction
   0.117E-06 0.674E-07 -.283E-08   0.114E-11 0.638E-12 -.193E-13   0.617E-17 -.256E-17 -.140E-18   0.184E-07 0.106E-07 0.225E-12
   0.480E-06 0.277E-06 -.436E-06   -.114E-11 -.637E-12 0.193E-13   -.698E-17 -.109E-17 0.862E-18   -.184E-07 -.106E-07 0.964E-13
   0.596E-06 0.344E-06 -.439E-06   -.156E-14 0.156E-14 -.230E-16   -.809E-18 -.366E-17 0.722E-18   -.577E-12 -.324E-12 0.321E-12

 POSITION                                       TOTAL-FORCE (eV/Angst)
      0.00000      0.00000      0.00000        -0.000000     -0.000000     -0.000000
      1.66073      0.95882      2.58096         0.000000      0.000000      0.000000
    total drift:                                0.000001      0.000000     -0.000000

  FREE ENERGIE OF THE ION-ELECTRON SYSTEM (eV)
  free  energy   TOTEN  =       -12.49870517 eV

  energy  without entropy=      -12.49362983  energy(sigma->0) =      -12.49616750

 writing wavefunctions