 vasp.6.4.3 19Mar24 (build Jun 26 2024 13:02:28) complex

 executed on             LinuxIFC date 2025.08.08  18:54:18

 INCAR:
   ENCUT = 520.0
   IBRION = -1
   ISMEAR = 0
   ISYM = 2
   LCHARG = True
   LWAVE = True
   SIGMA = 0.05
   SYSTEM = C

 POTCAR:  PAW_PBE C 08Apr2002
|           W    W    AA    RRRRR   N    N  II  N    N   GGGG   !!!           |
|           W    W   A  A   R    R  NN   N  II  NN   N  G    G  !!!           |
|           W    W  A    A  R    R  N N  N  II  N N  N  G       !!!           |
|           W WW W  AAAAAA  RRRRR   N  N N  II  N  N N  G  GGG   !            |
|           WW  WW  A    A  R   R   N   NN  II  N   NN  G    G                |
|           W    W  A    A  R    R  N    N  II  N    N   GGGG   !!!           |
|     For optimal performance we recommend to set                             |
|       NCORE = 2 up to number-of-cores-per-socket                            |
|     This setting can greatly improve the performance of VASP for DFT.       |
|     The default, NCORE=1 might be grossly inefficient on modern             |
|     multi-core architectures or massively parallel machines. Do your        |
|     Unfortunately you need to use the default for GW and RPA                |
|     calculations (for HF NCORE is supported but not extensively tested      |
|     yet).                                                                   |

 POTCAR:  PAW_PBE C 08Apr2002
   VRHFIN =C: s2p2

   TITEL  = PAW_PBE C 08Apr2002
   POMASS =   12.011; ZVAL   =    4.000    mass and valenz
   ENMAX  =  400.000; ENMIN  =  300.000 eV

PAW_PBE C 08Apr2002                     :

 POSCAR: C4
  positions in direct lattice

 exchange-correlation table for PE
   RHO(1)=    0.500       N(1)  =     2000
   RHO(2)=  100.500       N(2)  =     4000

 ion  position               nearest neighbor table
   1  0.000  0.000  0.250-   3 1.43   3 1.43   3 1.43
   2  0.000  0.000  0.750-   4 1.43   4 1.43   4 1.43
   3  0.333  0.667  0.250-   1 1.43   1 1.43   1 1.43
   4  0.667  0.333  0.750-   2 1.43   2 1.43   2 1.43

  LATTYP: Found a hexagonal cell.
 ALAT       =     2.4685700000
 C/A-ratio  =     3.5813406142

  Lattice vectors:

 A1 = (   2.4685700000,   0.0000000000,   0.0000000000)
 A2 = (  -1.2342850000,   2.1378443310,   0.0000000000)
 A3 = (   0.0000000000,   0.0000000000,   8.8407900000)

Analysis of symmetry for initial positions (statically):
 Subroutine PRICEL returns:
 Original cell was already a primitive cell.

 Routine SETGRP: Setting up the symmetry group for a
 hexagonal supercell.

 Subroutine GETGRP returns: Found 24 space group operations
 (whereof 12 operations were pure point group operations)
 out of a pool of 24 trial point group operations.

The static configuration has the point symmetry D_3d.
 The point group associated with its full space group is D_6h.

Analysis of symmetry for dynamics (positions and initial velocities):
 Subroutine PRICEL returns:
 Original cell was already a primitive cell.

 Routine SETGRP: Setting up the symmetry group for a
 hexagonal supercell.

 Subroutine GETGRP returns: Found 24 space group operations
 (whereof 12 operations were pure point group operations)
 out of a pool of 24 trial point group operations.

The dynamic configuration has the point symmetry D_3d.
 The point group associated with its full space group is D_6h.

 Subroutine INISYM returns: Found 24 space group operations
 (whereof 12 operations are pure point group operations),
 and found     1 'primitive' translations

                                     Primitive cell

  volume of cell :      46.6565

  direct lattice vectors                    reciprocal lattice vectors
     2.468570000  0.000000000  0.000000000     0.405092827  0.233880453  0.000000000
    -1.234285000  2.137844331  0.000000000     0.000000000  0.467760905  0.000000000
     0.000000000  0.000000000  8.840790000    -0.000000000 -0.000000000  0.113112064

  length of vectors
     2.468570000  2.468570000  8.840790000     0.467760905  0.467760905  0.113112064

  position of ions in fractional coordinates (direct lattice)
     0.000000000  0.000000000  0.250000000
     0.000000000  0.000000000  0.750000000
     0.333333333  0.666666667  0.250000000
     0.666666667  0.333333333  0.750000000

  ion indices of the primitive-cell ions
   primitive index   ion index
                 1           1
                 2           2
                 3           3
                 4           4

 KPOINTS: Automatic kpoint scheme

Automatic generation of k-mesh.
 Grid dimensions read from file:
 generate k-points for:   12   12   12

 Generating k-lattice:

  Cartesian coordinates                     Fractional coordinates (reciprocal lattice)
     0.033757736  0.019490038  0.000000000     0.083333333 -0.000000000  0.000000000
     0.000000000  0.038980075  0.000000000     0.000000000  0.083333333  0.000000000
    -0.000000000 -0.000000000  0.009426005     0.000000000 -0.000000000  0.083333333

  Length of vectors
     0.038980075  0.038980075  0.009426005

  Shift w.r.t. Gamma in fractional coordinates (k-lattice)
     0.000000000  0.000000000  0.000000000

 Subroutine IBZKPT returns following result:

 Found    133 irreducible k-points:

 Following reciprocal coordinates:
            Coordinates               Weight
  0.000000  0.000000  0.000000      1.000000
  0.083333  0.000000  0.000000      6.000000
  0.166667 -0.000000  0.000000      6.000000
  0.250000 -0.000000  0.000000      6.000000
  0.333333  0.000000  0.000000      6.000000
  0.416667 -0.000000  0.000000      6.000000
  0.500000 -0.000000  0.000000      3.000000
  0.083333  0.083333  0.000000      6.000000
  0.166667  0.083333  0.000000     12.000000
  0.250000  0.083333  0.000000     12.000000
  0.333333  0.083333  0.000000     12.000000
  0.416667  0.083333  0.000000     12.000000
  0.166667  0.166667  0.000000      6.000000
  0.250000  0.166667  0.000000     12.000000
  0.333333  0.166667  0.000000     12.000000
  0.416667  0.166667  0.000000      6.000000
  0.250000  0.250000  0.000000      6.000000
  0.333333  0.250000  0.000000     12.000000
  0.333333  0.333333  0.000000      2.000000
 -0.000000 -0.000000  0.083333      2.000000
  0.083333  0.000000  0.083333     12.000000
  0.166667 -0.000000  0.083333     12.000000
  0.250000 -0.000000  0.083333     12.000000
  0.333333  0.000000  0.083333     12.000000
  0.416667 -0.000000  0.083333     12.000000
  0.500000 -0.000000  0.083333      6.000000
  0.083333  0.083333  0.083333     12.000000
  0.166667  0.083333  0.083333     24.000000
  0.250000  0.083333  0.083333     24.000000
  0.333333  0.083333  0.083333     24.000000
  0.416667  0.083333  0.083333     24.000000
  0.166667  0.166667  0.083333     12.000000
  0.250000  0.166667  0.083333     24.000000
  0.333333  0.166667  0.083333     24.000000
  0.416667  0.166667  0.083333     12.000000
  0.250000  0.250000  0.083333     12.000000
  0.333333  0.250000  0.083333     24.000000
  0.333333  0.333333  0.083333      4.000000
 -0.000000  0.000000  0.166667      2.000000
  0.083333 -0.000000  0.166667     12.000000
  0.166667 -0.000000  0.166667     12.000000
  0.250000 -0.000000  0.166667     12.000000
  0.333333  0.000000  0.166667     12.000000
  0.416667 -0.000000  0.166667     12.000000
  0.500000 -0.000000  0.166667      6.000000
  0.083333  0.083333  0.166667     12.000000
  0.166667  0.083333  0.166667     24.000000
  0.250000  0.083333  0.166667     24.000000
  0.333333  0.083333  0.166667     24.000000
  0.416667  0.083333  0.166667     24.000000
  0.166667  0.166667  0.166667     12.000000
  0.250000  0.166667  0.166667     24.000000
  0.333333  0.166667  0.166667     24.000000
  0.416667  0.166667  0.166667     12.000000
  0.250000  0.250000  0.166667     12.000000
  0.333333  0.250000  0.166667     24.000000
  0.333333  0.333333  0.166667      4.000000
 -0.000000  0.000000  0.250000      2.000000
  0.083333 -0.000000  0.250000     12.000000
  0.166667 -0.000000  0.250000     12.000000
[...]
  0.333333 -0.000000  0.500000      6.000000
  0.416667 -0.000000  0.500000      6.000000
  0.500000 -0.000000  0.500000      3.000000
  0.083333  0.083333  0.500000      6.000000
  0.166667  0.083333  0.500000     12.000000
  0.250000  0.083333  0.500000     12.000000
  0.333333  0.083333  0.500000     12.000000
  0.416667  0.083333  0.500000     12.000000
  0.166667  0.166667  0.500000      6.000000
  0.250000  0.166667  0.500000     12.000000
  0.333333  0.166667  0.500000     12.000000
  0.416667  0.166667  0.500000      6.000000
  0.250000  0.250000  0.500000      6.000000
  0.333333  0.250000  0.500000     12.000000
  0.333333  0.333333  0.500000      2.000000

 Following cartesian coordinates:
            Coordinates               Weight
  0.000000  0.000000  0.000000      1.000000
  0.033758  0.019490  0.000000      6.000000
  0.067515  0.038980  0.000000      6.000000
  0.101273  0.058470  0.000000      6.000000
  0.135031  0.077960  0.000000      6.000000
  0.168789  0.097450  0.000000      6.000000
  0.202546  0.116940  0.000000      3.000000
  0.033758  0.058470  0.000000      6.000000
  0.067515  0.077960  0.000000     12.000000
  0.101273  0.097450  0.000000     12.000000
  0.135031  0.116940  0.000000     12.000000
  0.168789  0.136430  0.000000     12.000000
  0.067515  0.116940  0.000000      6.000000
  0.101273  0.136430  0.000000     12.000000
  0.135031  0.155920  0.000000     12.000000
  0.168789  0.175410  0.000000      6.000000
  0.101273  0.175410  0.000000      6.000000
  0.135031  0.194900  0.000000     12.000000
  0.135031  0.233880  0.000000      2.000000
 -0.000000 -0.000000  0.009426      2.000000
  0.033758  0.019490  0.009426     12.000000
  0.067515  0.038980  0.009426     12.000000
  0.101273  0.058470  0.009426     12.000000
  0.135031  0.077960  0.009426     12.000000
  0.168789  0.097450  0.009426     12.000000
  0.202546  0.116940  0.009426      6.000000
  0.033758  0.058470  0.009426     12.000000
  0.067515  0.077960  0.009426     24.000000
  0.101273  0.097450  0.009426     24.000000
  0.135031  0.116940  0.009426     24.000000
  0.168789  0.136430  0.009426     24.000000
  0.067515  0.116940  0.009426     12.000000
  0.101273  0.136430  0.009426     24.000000
  0.135031  0.155920  0.009426     24.000000
  0.168789  0.175410  0.009426     12.000000
  0.101273  0.175410  0.009426     12.000000
  0.135031  0.194900  0.009426     24.000000
  0.135031  0.233880  0.009426      4.000000
 -0.000000 -0.000000  0.018852      2.000000
  0.033758  0.019490  0.018852     12.000000
  0.067515  0.038980  0.018852     12.000000
  0.101273  0.058470  0.018852     12.000000
  0.135031  0.077960  0.018852     12.000000
  0.168789  0.097450  0.018852     12.000000
  0.202546  0.116940  0.018852      6.000000
  0.033758  0.058470  0.018852     12.000000
  0.067515  0.077960  0.018852     24.000000
  0.101273  0.097450  0.018852     24.000000
  0.135031  0.116940  0.018852     24.000000
  0.168789  0.136430  0.018852     24.000000
  0.067515  0.116940  0.018852     12.000000
  0.101273  0.136430  0.018852     24.000000
  0.135031  0.155920  0.018852     24.000000
  0.168789  0.175410  0.018852     12.000000
[...]
   0.16666667  0.08333333  0.16666667       0.014
   0.25000000  0.08333333  0.16666667       0.014
   0.33333333  0.08333333  0.16666667       0.014
   0.41666667  0.08333333  0.16666667       0.014
   0.16666667  0.16666667  0.16666667       0.007
   0.25000000  0.16666667  0.16666667       0.014
   0.33333333  0.16666667  0.16666667       0.014
   0.41666667  0.16666667  0.16666667       0.007
   0.25000000  0.25000000  0.16666667       0.007
   0.33333333  0.25000000  0.16666667       0.014
   0.33333333  0.33333333  0.16666667       0.002
  -0.00000000  0.00000000  0.25000000       0.001
   0.08333333 -0.00000000  0.25000000       0.007
   0.16666667 -0.00000000  0.25000000       0.007
[...]
   0.33333333 -0.00000000  0.50000000       0.003
   0.41666667 -0.00000000  0.50000000       0.003
   0.50000000 -0.00000000  0.50000000       0.002
   0.08333333  0.08333333  0.50000000       0.003
   0.16666667  0.08333333  0.50000000       0.007
   0.25000000  0.08333333  0.50000000       0.007
   0.33333333  0.08333333  0.50000000       0.007
   0.41666667  0.08333333  0.50000000       0.007
   0.16666667  0.16666667  0.50000000       0.003
   0.25000000  0.16666667  0.50000000       0.007
   0.33333333  0.16666667  0.50000000       0.007
   0.41666667  0.16666667  0.50000000       0.003
   0.25000000  0.25000000  0.50000000       0.003
   0.33333333  0.25000000  0.50000000       0.007
   0.33333333  0.33333333  0.50000000       0.001

 position of ions in fractional coordinates (direct lattice)
   0.00000000  0.00000000  0.25000000
   0.00000000  0.00000000  0.75000000
   0.33333333  0.66666667  0.25000000
   0.66666667  0.33333333  0.75000000

 position of ions in cartesian coordinates  (Angst):
   0.00000000  0.00000000  2.21019750
   0.00000000  0.00000000  6.63059250
   0.00000000  1.42522955  2.21019750
   1.23428500  0.71261478  6.63059250

 k-point     1 :   0.0000 0.0000 0.0000  plane waves:    1251
 k-point     2 :   0.0833 0.0000 0.0000  plane waves:    1266
 k-point     3 :   0.1667-0.0000 0.0000  plane waves:    1270
 k-point     4 :   0.2500-0.0000 0.0000  plane waves:    1280
 k-point     5 :   0.3333 0.0000 0.0000  plane waves:    1262
 k-point     6 :   0.4167-0.0000 0.0000  plane waves:    1244
 k-point     7 :   0.5000-0.0000 0.0000  plane waves:    1252
 k-point     8 :   0.0833 0.0833 0.0000  plane waves:    1265
 k-point     9 :   0.1667 0.0833 0.0000  plane waves:    1262
 k-point    10 :   0.2500 0.0833 0.0000  plane waves:    1270
 k-point    11 :   0.3333 0.0833 0.0000  plane waves:    1255
 k-point    12 :   0.4167 0.0833 0.0000  plane waves:    1250
 k-point    13 :   0.1667 0.1667 0.0000  plane waves:    1259
 k-point    14 :   0.2500 0.1667 0.0000  plane waves:    1256
 k-point    15 :   0.3333 0.1667 0.0000  plane waves:    1249
 k-point    16 :   0.4167 0.1667 0.0000  plane waves:    1242
 k-point    17 :   0.2500 0.2500 0.0000  plane waves:    1255
 k-point    18 :   0.3333 0.2500 0.0000  plane waves:    1244
 k-point    19 :   0.3333 0.3333 0.0000  plane waves:    1248
 k-point    20 :  -0.0000-0.0000 0.0833  plane waves:    1257
 k-point    21 :   0.0833 0.0000 0.0833  plane waves:    1272
 k-point    22 :   0.1667-0.0000 0.0833  plane waves:    1268
 k-point    23 :   0.2500-0.0000 0.0833  plane waves:    1274
 k-point    24 :   0.3333 0.0000 0.0833  plane waves:    1268
 k-point    25 :   0.4167-0.0000 0.0833  plane waves:    1242
 k-point    26 :   0.5000-0.0000 0.0833  plane waves:    1250
 k-point    27 :   0.0833 0.0833 0.0833  plane waves:    1259
 k-point    28 :   0.1667 0.0833 0.0833  plane waves:    1266
 k-point    29 :   0.2500 0.0833 0.0833  plane waves:    1267
 k-point    30 :   0.3333 0.0833 0.0833  plane waves:    1255
 k-point    31 :   0.4167 0.0833 0.0833  plane waves:    1254
 k-point    32 :   0.1667 0.1667 0.0833  plane waves:    1261
 k-point    33 :   0.2500 0.1667 0.0833  plane waves:    1256
 k-point    34 :   0.3333 0.1667 0.0833  plane waves:    1250
 k-point    35 :   0.4167 0.1667 0.0833  plane waves:    1249
 k-point    36 :   0.2500 0.2500 0.0833  plane waves:    1253
 k-point    37 :   0.3333 0.2500 0.0833  plane waves:    1241
 k-point    38 :   0.3333 0.3333 0.0833  plane waves:    1236
 k-point    39 :  -0.0000 0.0000 0.1667  plane waves:    1263
 k-point    40 :   0.0833-0.0000 0.1667  plane waves:    1268
 k-point    41 :   0.1667-0.0000 0.1667  plane waves:    1268
 k-point    42 :   0.2500-0.0000 0.1667  plane waves:    1274
 k-point    43 :   0.3333 0.0000 0.1667  plane waves:    1270
 k-point    44 :   0.4167-0.0000 0.1667  plane waves:    1247
 k-point    45 :   0.5000-0.0000 0.1667  plane waves:    1246
 k-point    46 :   0.0833 0.0833 0.1667  plane waves:    1266
 k-point    47 :   0.1667 0.0833 0.1667  plane waves:    1268
 k-point    48 :   0.2500 0.0833 0.1667  plane waves:    1267
 k-point    49 :   0.3333 0.0833 0.1667  plane waves:    1255
 k-point    50 :   0.4167 0.0833 0.1667  plane waves:    1249
 k-point    51 :   0.1667 0.1667 0.1667  plane waves:    1261
 k-point    52 :   0.2500 0.1667 0.1667  plane waves:    1254
 k-point    53 :   0.3333 0.1667 0.1667  plane waves:    1251
 k-point    54 :   0.4167 0.1667 0.1667  plane waves:    1246
 k-point    55 :   0.2500 0.2500 0.1667  plane waves:    1243
 k-point    56 :   0.3333 0.2500 0.1667  plane waves:    1242
 k-point    57 :   0.3333 0.3333 0.1667  plane waves:    1236
 k-point    58 :  -0.0000 0.0000 0.2500  plane waves:    1269
 k-point    59 :   0.0833-0.0000 0.2500  plane waves:    1269
 k-point    60 :   0.1667-0.0000 0.2500  plane waves:    1275
[...]
 k-point   119 :   0.3333-0.0000 0.5000  plane waves:    1256
 k-point   120 :   0.4167-0.0000 0.5000  plane waves:    1256
 k-point   121 :   0.5000-0.0000 0.5000  plane waves:    1256
 k-point   122 :   0.0833 0.0833 0.5000  plane waves:    1274
 k-point   123 :   0.1667 0.0833 0.5000  plane waves:    1274
 k-point   124 :   0.2500 0.0833 0.5000  plane waves:    1264
 k-point   125 :   0.3333 0.0833 0.5000  plane waves:    1242
 k-point   126 :   0.4167 0.0833 0.5000  plane waves:    1246
 k-point   127 :   0.1667 0.1667 0.5000  plane waves:    1260
 k-point   128 :   0.2500 0.1667 0.5000  plane waves:    1238
 k-point   129 :   0.3333 0.1667 0.5000  plane waves:    1242
 k-point   130 :   0.4167 0.1667 0.5000  plane waves:    1254
 k-point   131 :   0.2500 0.2500 0.5000  plane waves:    1248
 k-point   132 :   0.3333 0.2500 0.5000  plane waves:    1238
 k-point   133 :   0.3333 0.3333 0.5000  plane waves:    1248

 maximum and minimum number of plane-waves per node :      1280     1230

 maximum number of plane-waves:      1280
 maximum index in each direction:
   IXMAX=    4   IYMAX=    4   IZMAX=   16
   IXMIN=   -5   IYMIN=   -4   IZMIN=  -16

 serial   3D FFT for wavefunctions
 parallel 3D FFT for charge:
    minimum data exchange during FFTs selected (reduces bandwidth)

 Broyden mixing: mesh for mixing (old mesh)
   NGX =  9   NGY =  9   NGZ = 33
  (NGX  = 28   NGY  = 28   NGZ  =100)
  gives a total of   2673 points

 charge density for first step will be calculated from the start-wavefunctions

 Maximum index for augmentation-charges          193 (set IRDMAX)

 initial charge from wavefunction
 First call to EWALD:  gamma=   0.492
 Maximum number of real-space cells 4x 4x 1
 Maximum number of reciprocal cells 2x 2x 6

--------------------------------------- Ionic step        1  -------------------------------------------

--------------------------------------- Iteration      1(   1)  ---------------------------------------

 eigenvalue-minimisations  :  6816
 total energy-change (2. order) :-0.3688969E+02  (-0.8581185E-08)
 number of electron      16.0000000 magnetization
 augmentation part        0.3830860 magnetization

 Broyden mixing:
  rms(total) = 0.29349E-04    rms(broyden)= 0.27263E-04
  rms(prec ) = 0.39243E-04
  weight for this iteration     100.00

 Free energy of the ion-electron system (eV)
  alpha Z        PSCENC =        28.17069677
  Ewald energy   TEWEN  =      -266.01370913
  -Hartree energ DENC   =      -334.37086906
  -exchange      EXHF   =         0.00000000
  -V(xc)+E(xc)   XCENC  =        55.05021743
  PAW double counting   =      1661.63689545    -1664.36985473
  entropy T*S    EENTRO =        -0.00102819
  eigenvalues    EBANDS =      -105.58761558
  atomic energy  EATOM  =       588.59557325
  Solvation  Ediel_sol  =         0.00000000
  free energy    TOTEN  =       -36.88969380 eV

  energy without entropy =      -36.88866561  energy(sigma->0) =      -36.88917970

--------------------------------------- Iteration      1(   2)  ---------------------------------------

 eigenvalue-minimisations  :  6768
 total energy-change (2. order) :-0.1499529E-09  (-0.6185945E-09)
 number of electron      16.0000000 magnetization
 augmentation part        0.3830860 magnetization

 Free energy of the ion-electron system (eV)
  alpha Z        PSCENC =        28.17069677
  Ewald energy   TEWEN  =      -266.01370913
  -Hartree energ DENC   =      -334.37161183
  -exchange      EXHF   =         0.00000000
  -V(xc)+E(xc)   XCENC  =        55.05025435
  PAW double counting   =      1661.63352646    -1664.36649535
  entropy T*S    EENTRO =        -0.00102819
  eigenvalues    EBANDS =      -105.58690013
  atomic energy  EATOM  =       588.59557325
  Solvation  Ediel_sol  =         0.00000000
  free energy    TOTEN  =       -36.88969380 eV

  energy without entropy =      -36.88866561  energy(sigma->0) =      -36.88917971

 average (electrostatic) potential at core
  the test charge radii are     0.6991
  (the norm of the test charge is              1.0000)
       1 -52.9168       2 -52.9168       3 -52.9157       4 -52.9157

 E-fermi :   2.5216     XC(G=0):  -8.4940     alpha+bet : -8.5924

 val. band max:        2.5215177220   @ k =   0.3333   0.3333   0.1667
 cond. band min:       2.5217054144   @ k =   0.3333   0.3333   0.2500
 fundamental gap:      0.0001876923
 Fermi energy:         2.5216369401

 k-point     1 :       0.0000    0.0000    0.0000
  band No.  band energies     occupation
      1     -16.9764      2.00000
      2     -16.9515      2.00000
      3      -5.2557      2.00000
      4      -4.8788      2.00000
      5      -0.5064      2.00000
      6      -0.5064      2.00000
      7      -0.5057      2.00000
      8      -0.5057      2.00000
      9       5.5319      0.00000
     10       8.5229      0.00000
     11      10.8229      0.00000
     12      10.8229      0.00000
     13      10.8258      0.00000
     14      10.8258      0.00000
     15      12.1737      0.00000
     16      13.8944      0.00000
     17      13.9100      0.00000
     18      14.9454      0.00000
     19      14.9617      0.00000
     20      18.1090      0.00000
     21      24.9389      0.00000
     22      24.9461      0.00000
     23      25.0341      0.00000
     24      29.8905      0.00000
     25      30.4359      0.00000
     26      30.4359      0.00000
     27      30.8333      0.00000
     28      30.8333      0.00000
     29      33.8617      0.00000
     30      33.8617      0.00000
     31      34.3868      0.00000
     32      34.6482      0.00000
     33      34.6482      0.00000
     34      36.9524      0.00000
     35      36.9524      0.00000
     36      37.3213      0.00000
     37      37.3213      0.00000
     38      38.1409      0.00000
     39      38.7459      0.00000
     40      39.4854      0.00000
     41      41.2175      0.00000
     42      41.4850      0.00000
     43      41.8360      0.00000
     44      41.8360      0.00000
     45      42.0689      0.00000
     46      42.1488      0.00000
     47      42.1489      0.00000
     48      43.8731      0.00000

[...]

 k-point   133 :       0.3333    0.3333    0.5000
  band No.  band energies     occupation
      1     -10.0559      2.00000
      2     -10.0559      2.00000
      3     -10.0557      2.00000
      4     -10.0557      2.00000
      5      -7.9974      2.00000
      6      -7.9974      2.00000
      7       2.5212      1.01066
      8       2.5212      1.01066
      9       2.5221      0.99055
     10       2.5221      0.99055
     11      12.9676      0.00000
     12      12.9676      0.00000
     13      15.4918      0.00000
     14      15.4918      0.00000
     15      16.1445      0.00000
     16      16.1445      0.00000
     17      16.1989      0.00000
     18      16.1989      0.00000
     19      18.8631      0.00000
     20      18.8631      0.00000
     21      20.2524      0.00000
     22      20.2524      0.00000
     23      20.7727      0.00000
     24      20.7727      0.00000
     25      25.3496      0.00000
     26      25.3496      0.00000
     27      26.9060      0.00000
     28      26.9060      0.00000
     29      27.1747      0.00000
     30      27.1747      0.00000
     31      29.4859      0.00000
     32      29.4859      0.00000
     33      36.6451      0.00000
     34      36.6451      0.00000
     35      37.3944      0.00000
     36      37.3944      0.00000
     37      42.1465      0.00000
     38      42.1465      0.00000
     39      43.0916      0.00000
     40      43.0916      0.00000
     41      43.7469      0.00000
     42      43.7469      0.00000
     43      44.6155      0.00000
     44      44.6155      0.00000
     45      46.9672      0.00000
     46      46.9672      0.00000
     47      48.0643      0.00000
     48      48.0643      0.00000

 soft charge-density along one line, spin component           1
         0         1         2         3         4         5         6         7         8         9
 total charge-density along one line

------------------------ aborting loop because EDIFF is reached ----------------------------------------

  FORCE on cell =-STRESS in cart. coord.  units (eV):
  Direction    XX          YY          ZZ          XY          YZ          ZX
  Alpha Z    28.17070    28.17070    28.17070
  Ewald     271.18079   271.18079  -808.37549     0.00000     0.00000     0.00000
  Hartree   311.69401   311.69401  -289.01502     0.00000     0.00000     0.00000
  E(xc)     -59.38087   -59.38087   -61.60536    -0.00000     0.00000     0.00000
  Local    -775.77862  -775.77877   870.58957    -0.00013    -0.00002    -0.00001
  n-local   -13.69312   -14.72467   -12.97494    -0.62798     0.00154     0.00154
  augment    -1.55234    -1.55226    -1.43242     0.00007    -0.00000     0.00000
  Kinetic   235.92668   243.77625   274.61176     6.17676    -0.02610    -0.02745
  Fock        0.00000     0.00000     0.00000     0.00000     0.00000     0.00000
  Total      -0.02380    -0.02380    -0.03121     0.00000    -0.00000    -0.00000
  in kB      -0.81733    -0.81733    -1.07164     0.00000    -0.00000    -0.00000

 VOLUME and BASIS-vectors are now :
  energy-cutoff  :      520.00
  volume of cell :       46.66
      direct lattice vectors                 reciprocal lattice vectors
     2.468570000  0.000000000  0.000000000     0.405092827  0.233880453  0.000000000
    -1.234285000  2.137844331  0.000000000     0.000000000  0.467760905  0.000000000
     0.000000000  0.000000000  8.840790000    -0.000000000 -0.000000000  0.113112064

  length of vectors
     2.468570000  2.468570000  8.840790000     0.467760905  0.467760905  0.113112064

 FORCES acting on ions
    electron-ion (+dipol)            ewald-force                    non-local-force                 convergence-correction
   0.874E-06 -.505E-06 0.563E-13   0.608E-11 -.350E-11 -.205E-13   -.124E-15 0.251E-16 -.482E-19   -.947E-11 0.546E-11 -.375E-13
   -.874E-06 0.505E-06 0.170E-12   -.608E-11 0.349E-11 0.205E-13   0.114E-15 -.291E-16 -.361E-19   0.947E-11 -.546E-11 0.268E-13
   -.142E-05 0.823E-06 -.514E-12   -.609E-11 0.350E-11 -.205E-13   -.354E-16 0.283E-16 -.306E-19   0.986E-10 -.569E-10 -.377E-13
   0.142E-05 -.823E-06 -.181E-11   0.608E-11 -.350E-11 0.205E-13   0.163E-16 -.867E-16 0.367E-19   -.986E-10 0.569E-10 0.271E-13
   0.482E-13 -.129E-12 -.210E-11   -.857E-14 -.863E-14 -.189E-19   -.293E-16 -.623E-16 -.782E-19   0.512E-15 0.342E-15 -.213E-13

 POSITION                                       TOTAL-FORCE (eV/Angst)
      0.00000      0.00000      2.21020        -0.000000      0.000000      0.000000
      0.00000      0.00000      6.63059         0.000000      0.000000      0.000000
      0.00000      1.42523      2.21020        -0.000000     -0.000000      0.000000
      1.23428      0.71261      6.63059         0.000000      0.000000     -0.000000
    total drift:                                0.000000     -0.000000     -0.000000

  FREE ENERGIE OF THE ION-ELECTRON SYSTEM (eV)
  free  energy   TOTEN  =       -36.88969380 eV

  energy  without entropy=      -36.88866561  energy(sigma->0) =      -36.88917971

 writing wavefunctions