 vasp.6.4.3 19Mar24 (build Jun 26 2024 13:02:28) complex

 executed on             LinuxIFC date 2025.08.08  18:57:05

 INCAR:
   ENCUT = 356.99300000000005
   IBRION = -1
   ISMEAR = 0
   ISYM = 2
   LCHARG = True
   LWAVE = True
   SIGMA = 0.05
   SYSTEM = Ti

 POTCAR:  PAW_PBE Ti_sv 26Sep2005
|           W    W    AA    RRRRR   N    N  II  N    N   GGGG   !!!           |
|           W    W   A  A   R    R  NN   N  II  NN   N  G    G  !!!           |
|           W    W  A    A  R    R  N N  N  II  N N  N  G       !!!           |
|           W WW W  AAAAAA  RRRRR   N  N N  II  N  N N  G  GGG   !            |
|           WW  WW  A    A  R   R   N   NN  II  N   NN  G    G                |
|           W    W  A    A  R    R  N    N  II  N    N   GGGG   !!!           |
|     For optimal performance we recommend to set                             |
|       NCORE = 2 up to number-of-cores-per-socket                            |
|     This setting can greatly improve the performance of VASP for DFT.       |
|     The default, NCORE=1 might be grossly inefficient on modern             |
|     multi-core architectures or massively parallel machines. Do your        |
|     Unfortunately you need to use the default for GW and RPA                |
|     calculations (for HF NCORE is supported but not extensively tested      |
|     yet).                                                                   |

 POTCAR:  PAW_PBE Ti_sv 26Sep2005
   VRHFIN =Ti: 3p4s3d

   TITEL  = PAW_PBE Ti_sv 26Sep2005
   POMASS =   47.880; ZVAL   =   12.000    mass and valenz
   ENMAX  =  274.610; ENMIN  =  205.957 eV

PAW_PBE Ti_sv 26Sep2005                 :

 POSCAR: Ti2
  positions in direct lattice

 exchange-correlation table for PE
   RHO(1)=    0.500       N(1)  =     2000
   RHO(2)=  100.500       N(2)  =     4000

 ion  position               nearest neighbor table
   1  0.000  0.000  0.000-   2 2.88   2 2.88   2 2.88   2 2.88   2 2.88   2 2.88
   2  0.333  0.333  0.500-   1 2.88   1 2.88   1 2.88   1 2.88   1 2.88   1 2.88

  LATTYP: Found a hexagonal cell.
 ALAT       =     2.9366400000
 C/A-ratio  =     1.5840995151

  Lattice vectors:

 A1 = (  -1.4683200000,  -2.5432048418,   0.0000000000)
 A2 = (   2.9366400000,   0.0000000000,   0.0000000000)
 A3 = (   0.0000000000,   0.0000000000,   4.6519300000)

Analysis of symmetry for initial positions (statically):
 Subroutine PRICEL returns:
 Original cell was already a primitive cell.

 Routine SETGRP: Setting up the symmetry group for a
 hexagonal supercell.

 Subroutine GETGRP returns: Found 24 space group operations
 (whereof 12 operations were pure point group operations)
 out of a pool of 24 trial point group operations.

The static configuration has the point symmetry D_3h.
 The point group associated with its full space group is D_6h.

Analysis of symmetry for dynamics (positions and initial velocities):
 Subroutine PRICEL returns:
 Original cell was already a primitive cell.

 Routine SETGRP: Setting up the symmetry group for a
 hexagonal supercell.

 Subroutine GETGRP returns: Found 24 space group operations
 (whereof 12 operations were pure point group operations)
 out of a pool of 24 trial point group operations.

The dynamic configuration has the point symmetry D_3h.
 The point group associated with its full space group is D_6h.

 Subroutine INISYM returns: Found 24 space group operations
 (whereof 12 operations are pure point group operations),
 and found     1 'primitive' translations

                                     Primitive cell

  volume of cell :      34.7428

  direct lattice vectors                    reciprocal lattice vectors
     2.936640000  0.000000000  0.000000000     0.340525226 -0.196602331  0.000000000
     1.468320000  2.543204842  0.000000000     0.000000000  0.393204662  0.000000000
     0.000000000  0.000000000  4.651930000    -0.000000000 -0.000000000  0.214964542

  length of vectors
     2.936640000  2.936640000  4.651930000     0.393204662  0.393204662  0.214964542

  position of ions in fractional coordinates (direct lattice)
     0.000000000  0.000000000  0.000000000
     0.333333333  0.333333333  0.500000000

  ion indices of the primitive-cell ions
   primitive index   ion index
                 1           1
                 2           2

 KPOINTS: Automatic kpoint scheme

Automatic generation of k-mesh.
 Grid dimensions read from file:
 generate k-points for:   12   12   12

 Generating k-lattice:

  Cartesian coordinates                     Fractional coordinates (reciprocal lattice)
     0.028377102 -0.016383528  0.000000000     0.083333333 -0.000000000  0.000000000
     0.000000000  0.032767055  0.000000000     0.000000000  0.083333333  0.000000000
    -0.000000000 -0.000000000  0.017913712    -0.000000000  0.000000000  0.083333333

  Length of vectors
     0.032767055  0.032767055  0.017913712

  Shift w.r.t. Gamma in fractional coordinates (k-lattice)
     0.000000000  0.000000000  0.000000000

 Subroutine IBZKPT returns following result:

 Found    133 irreducible k-points:

 Following reciprocal coordinates:
            Coordinates               Weight
  0.000000  0.000000  0.000000      1.000000
  0.083333  0.000000  0.000000      6.000000
  0.166667 -0.000000  0.000000      6.000000
  0.250000  0.000000  0.000000      6.000000
  0.333333  0.000000  0.000000      6.000000
  0.416667  0.000000  0.000000      6.000000
  0.500000  0.000000  0.000000      3.000000
  0.166667  0.083333  0.000000      6.000000
  0.250000  0.083333  0.000000     12.000000
  0.333333  0.083333  0.000000     12.000000
  0.416667  0.083333  0.000000     12.000000
  0.500000  0.083333  0.000000     12.000000
  0.333333  0.166667  0.000000      6.000000
  0.416667  0.166667  0.000000     12.000000
  0.500000  0.166667  0.000000     12.000000
 -0.416667  0.166667  0.000000      6.000000
  0.500000  0.250000  0.000000      6.000000
 -0.416667  0.250000  0.000000     12.000000
 -0.333333  0.333333  0.000000      2.000000
 -0.000000 -0.000000  0.083333      2.000000
  0.083333  0.000000  0.083333     12.000000
  0.166667  0.000000  0.083333     12.000000
  0.250000  0.000000  0.083333     12.000000
  0.333333  0.000000  0.083333     12.000000
  0.416667  0.000000  0.083333     12.000000
  0.500000  0.000000  0.083333      6.000000
  0.166667  0.083333  0.083333     12.000000
  0.250000  0.083333  0.083333     24.000000
  0.333333  0.083333  0.083333     24.000000
  0.416667  0.083333  0.083333     24.000000
  0.500000  0.083333  0.083333     24.000000
  0.333333  0.166667  0.083333     12.000000
  0.416667  0.166667  0.083333     24.000000
  0.500000  0.166667  0.083333     24.000000
 -0.416667  0.166667  0.083333     12.000000
  0.500000  0.250000  0.083333     12.000000
 -0.416667  0.250000  0.083333     24.000000
 -0.333333  0.333333  0.083333      4.000000
 -0.000000 -0.000000  0.166667      2.000000
  0.083333  0.000000  0.166667     12.000000
  0.166667  0.000000  0.166667     12.000000
  0.250000  0.000000  0.166667     12.000000
  0.333333  0.000000  0.166667     12.000000
  0.416667  0.000000  0.166667     12.000000
  0.500000  0.000000  0.166667      6.000000
  0.166667  0.083333  0.166667     12.000000
  0.250000  0.083333  0.166667     24.000000
  0.333333  0.083333  0.166667     24.000000
  0.416667  0.083333  0.166667     24.000000
  0.500000  0.083333  0.166667     24.000000
  0.333333  0.166667  0.166667     12.000000
  0.416667  0.166667  0.166667     24.000000
  0.500000  0.166667  0.166667     24.000000
 -0.416667  0.166667  0.166667     12.000000
  0.500000  0.250000  0.166667     12.000000
 -0.416667  0.250000  0.166667     24.000000
 -0.333333  0.333333  0.166667      4.000000
 -0.000000 -0.000000  0.250000      2.000000
  0.083333 -0.000000  0.250000     12.000000
  0.166667 -0.000000  0.250000     12.000000
[...]
  0.333333 -0.000000  0.500000      6.000000
  0.416667  0.000000  0.500000      6.000000
  0.500000  0.000000  0.500000      3.000000
  0.166667  0.083333  0.500000      6.000000
  0.250000  0.083333  0.500000     12.000000
  0.333333  0.083333  0.500000     12.000000
  0.416667  0.083333  0.500000     12.000000
  0.500000  0.083333  0.500000     12.000000
  0.333333  0.166667  0.500000      6.000000
  0.416667  0.166667  0.500000     12.000000
  0.500000  0.166667  0.500000     12.000000
 -0.416667  0.166667  0.500000      6.000000
  0.500000  0.250000  0.500000      6.000000
 -0.416667  0.250000  0.500000     12.000000
 -0.333333  0.333333  0.500000      2.000000

 Following cartesian coordinates:
            Coordinates               Weight
  0.000000  0.000000  0.000000      1.000000
  0.028377 -0.016384  0.000000      6.000000
  0.056754 -0.032767  0.000000      6.000000
  0.085131 -0.049151  0.000000      6.000000
  0.113508 -0.065534  0.000000      6.000000
  0.141886 -0.081918  0.000000      6.000000
  0.170263 -0.098301  0.000000      3.000000
  0.056754  0.000000  0.000000      6.000000
  0.085131 -0.016384  0.000000     12.000000
  0.113508 -0.032767  0.000000     12.000000
  0.141886 -0.049151  0.000000     12.000000
  0.170263 -0.065534  0.000000     12.000000
  0.113508 -0.000000  0.000000      6.000000
  0.141886 -0.016384  0.000000     12.000000
  0.170263 -0.032767  0.000000     12.000000
 -0.141886  0.147452  0.000000      6.000000
  0.170263 -0.000000  0.000000      6.000000
 -0.141886  0.180219  0.000000     12.000000
 -0.113508  0.196602  0.000000      2.000000
 -0.000000 -0.000000  0.017914      2.000000
  0.028377 -0.016384  0.017914     12.000000
  0.056754 -0.032767  0.017914     12.000000
  0.085131 -0.049151  0.017914     12.000000
  0.113508 -0.065534  0.017914     12.000000
  0.141886 -0.081918  0.017914     12.000000
  0.170263 -0.098301  0.017914      6.000000
  0.056754  0.000000  0.017914     12.000000
  0.085131 -0.016384  0.017914     24.000000
  0.113508 -0.032767  0.017914     24.000000
  0.141886 -0.049151  0.017914     24.000000
  0.170263 -0.065534  0.017914     24.000000
  0.113508 -0.000000  0.017914     12.000000
  0.141886 -0.016384  0.017914     24.000000
  0.170263 -0.032767  0.017914     24.000000
 -0.141886  0.147452  0.017914     12.000000
  0.170263 -0.000000  0.017914     12.000000
 -0.141886  0.180219  0.017914     24.000000
 -0.113508  0.196602  0.017914      4.000000
 -0.000000 -0.000000  0.035827      2.000000
  0.028377 -0.016384  0.035827     12.000000
  0.056754 -0.032767  0.035827     12.000000
  0.085131 -0.049151  0.035827     12.000000
  0.113508 -0.065534  0.035827     12.000000
  0.141886 -0.081918  0.035827     12.000000
  0.170263 -0.098301  0.035827      6.000000
  0.056754  0.000000  0.035827     12.000000
  0.085131 -0.016384  0.035827     24.000000
  0.113508 -0.032767  0.035827     24.000000
  0.141886 -0.049151  0.035827     24.000000
  0.170263 -0.065534  0.035827     24.000000
  0.113508 -0.000000  0.035827     12.000000
  0.141886 -0.016384  0.035827     24.000000
  0.170263 -0.032767  0.035827     24.000000
 -0.141886  0.147452  0.035827     12.000000
  0.170263 -0.000000  0.035827     12.000000
 -0.141886  0.180219  0.035827     24.000000
 -0.113508  0.196602  0.035827      4.000000
[...]
  -0.41666667  0.16666667  0.08333333       0.007
   0.50000000  0.25000000  0.08333333       0.007
  -0.41666667  0.25000000  0.08333333       0.014
  -0.33333333  0.33333333  0.08333333       0.002
  -0.00000000 -0.00000000  0.16666667       0.001
   0.08333333  0.00000000  0.16666667       0.007
   0.16666667  0.00000000  0.16666667       0.007
   0.25000000  0.00000000  0.16666667       0.007
   0.33333333  0.00000000  0.16666667       0.007
   0.41666667  0.00000000  0.16666667       0.007
   0.50000000  0.00000000  0.16666667       0.003
   0.16666667  0.08333333  0.16666667       0.007
   0.25000000  0.08333333  0.16666667       0.014
   0.33333333  0.08333333  0.16666667       0.014
   0.41666667  0.08333333  0.16666667       0.014
   0.50000000  0.08333333  0.16666667       0.014
   0.33333333  0.16666667  0.16666667       0.007
   0.41666667  0.16666667  0.16666667       0.014
   0.50000000  0.16666667  0.16666667       0.014
  -0.41666667  0.16666667  0.16666667       0.007
   0.50000000  0.25000000  0.16666667       0.007
  -0.41666667  0.25000000  0.16666667       0.014
  -0.33333333  0.33333333  0.16666667       0.002
  -0.00000000 -0.00000000  0.25000000       0.001
   0.08333333 -0.00000000  0.25000000       0.007
   0.16666667 -0.00000000  0.25000000       0.007
[...]
   0.33333333 -0.00000000  0.50000000       0.003
   0.41666667  0.00000000  0.50000000       0.003
   0.50000000  0.00000000  0.50000000       0.002
   0.16666667  0.08333333  0.50000000       0.003
   0.25000000  0.08333333  0.50000000       0.007
   0.33333333  0.08333333  0.50000000       0.007
   0.41666667  0.08333333  0.50000000       0.007
   0.50000000  0.08333333  0.50000000       0.007
   0.33333333  0.16666667  0.50000000       0.003
   0.41666667  0.16666667  0.50000000       0.007
   0.50000000  0.16666667  0.50000000       0.007
  -0.41666667  0.16666667  0.50000000       0.003
   0.50000000  0.25000000  0.50000000       0.003
  -0.41666667  0.25000000  0.50000000       0.007
  -0.33333333  0.33333333  0.50000000       0.001

 position of ions in fractional coordinates (direct lattice)
   0.00000000  0.00000000  0.00000000
   0.33333333  0.33333333  0.50000000

 position of ions in cartesian coordinates  (Angst):
   0.00000000  0.00000000  0.00000000
   1.46832000  0.84773495  2.32596500

 k-point     1 :   0.0000 0.0000 0.0000  plane waves:     537
 k-point     2 :   0.0833 0.0000 0.0000  plane waves:     546
 k-point     3 :   0.1667-0.0000 0.0000  plane waves:     540
 k-point     4 :   0.2500 0.0000 0.0000  plane waves:     542
 k-point     5 :   0.3333 0.0000 0.0000  plane waves:     534
 k-point     6 :   0.4167 0.0000 0.0000  plane waves:     530
 k-point     7 :   0.5000 0.0000 0.0000  plane waves:     520
 k-point     8 :   0.1667 0.0833 0.0000  plane waves:     549
 k-point     9 :   0.2500 0.0833 0.0000  plane waves:     539
 k-point    10 :   0.3333 0.0833 0.0000  plane waves:     535
 k-point    11 :   0.4167 0.0833 0.0000  plane waves:     527
 k-point    12 :   0.5000 0.0833 0.0000  plane waves:     526
 k-point    13 :   0.3333 0.1667 0.0000  plane waves:     535
 k-point    14 :   0.4167 0.1667 0.0000  plane waves:     527
 k-point    15 :   0.5000 0.1667 0.0000  plane waves:     524
 k-point    16 :  -0.4167 0.1667 0.0000  plane waves:     530
 k-point    17 :   0.5000 0.2500 0.0000  plane waves:     521
 k-point    18 :  -0.4167 0.2500 0.0000  plane waves:     528
 k-point    19 :  -0.3333 0.3333 0.0000  plane waves:     534
 k-point    20 :  -0.0000-0.0000 0.0833  plane waves:     543
 k-point    21 :   0.0833 0.0000 0.0833  plane waves:     546
 k-point    22 :   0.1667 0.0000 0.0833  plane waves:     541
 k-point    23 :   0.2500 0.0000 0.0833  plane waves:     539
 k-point    24 :   0.3333 0.0000 0.0833  plane waves:     537
 k-point    25 :   0.4167 0.0000 0.0833  plane waves:     530
 k-point    26 :   0.5000 0.0000 0.0833  plane waves:     530
 k-point    27 :   0.1667 0.0833 0.0833  plane waves:     547
 k-point    28 :   0.2500 0.0833 0.0833  plane waves:     539
 k-point    29 :   0.3333 0.0833 0.0833  plane waves:     532
 k-point    30 :   0.4167 0.0833 0.0833  plane waves:     524
 k-point    31 :   0.5000 0.0833 0.0833  plane waves:     529
 k-point    32 :   0.3333 0.1667 0.0833  plane waves:     534
 k-point    33 :   0.4167 0.1667 0.0833  plane waves:     527
 k-point    34 :   0.5000 0.1667 0.0833  plane waves:     523
 k-point    35 :  -0.4167 0.1667 0.0833  plane waves:     528
 k-point    36 :   0.5000 0.2500 0.0833  plane waves:     524
 k-point    37 :  -0.4167 0.2500 0.0833  plane waves:     527
 k-point    38 :  -0.3333 0.3333 0.0833  plane waves:     528
 k-point    39 :  -0.0000-0.0000 0.1667  plane waves:     537
 k-point    40 :   0.0833 0.0000 0.1667  plane waves:     542
 k-point    41 :   0.1667 0.0000 0.1667  plane waves:     543
 k-point    42 :   0.2500 0.0000 0.1667  plane waves:     546
 k-point    43 :   0.3333 0.0000 0.1667  plane waves:     532
 k-point    44 :   0.4167 0.0000 0.1667  plane waves:     527
 k-point    45 :   0.5000 0.0000 0.1667  plane waves:     528
 k-point    46 :   0.1667 0.0833 0.1667  plane waves:     544
 k-point    47 :   0.2500 0.0833 0.1667  plane waves:     538
 k-point    48 :   0.3333 0.0833 0.1667  plane waves:     533
 k-point    49 :   0.4167 0.0833 0.1667  plane waves:     526
 k-point    50 :   0.5000 0.0833 0.1667  plane waves:     529
 k-point    51 :   0.3333 0.1667 0.1667  plane waves:     530
 k-point    52 :   0.4167 0.1667 0.1667  plane waves:     526
 k-point    53 :   0.5000 0.1667 0.1667  plane waves:     523
 k-point    54 :  -0.4167 0.1667 0.1667  plane waves:     527
 k-point    55 :   0.5000 0.2500 0.1667  plane waves:     523
 k-point    56 :  -0.4167 0.2500 0.1667  plane waves:     528
 k-point    57 :  -0.3333 0.3333 0.1667  plane waves:     531
 k-point    58 :  -0.0000-0.0000 0.2500  plane waves:     548
 k-point    59 :   0.0833-0.0000 0.2500  plane waves:     538
 k-point    60 :   0.1667-0.0000 0.2500  plane waves:     540
[...]
 k-point   119 :   0.3333-0.0000 0.5000  plane waves:     530
 k-point   120 :   0.4167 0.0000 0.5000  plane waves:     536
 k-point   121 :   0.5000 0.0000 0.5000  plane waves:     532
 k-point   122 :   0.1667 0.0833 0.5000  plane waves:     534
 k-point   123 :   0.2500 0.0833 0.5000  plane waves:     540
 k-point   124 :   0.3333 0.0833 0.5000  plane waves:     536
 k-point   125 :   0.4167 0.0833 0.5000  plane waves:     538
 k-point   126 :   0.5000 0.0833 0.5000  plane waves:     524
 k-point   127 :   0.3333 0.1667 0.5000  plane waves:     544
 k-point   128 :   0.4167 0.1667 0.5000  plane waves:     538
 k-point   129 :   0.5000 0.1667 0.5000  plane waves:     532
 k-point   130 :  -0.4167 0.1667 0.5000  plane waves:     534
 k-point   131 :   0.5000 0.2500 0.5000  plane waves:     532
 k-point   132 :  -0.4167 0.2500 0.5000  plane waves:     530
 k-point   133 :  -0.3333 0.3333 0.5000  plane waves:     522

 maximum and minimum number of plane-waves per node :       549      520

 maximum number of plane-waves:       549
 maximum index in each direction:
   IXMAX=    4   IYMAX=    4   IZMAX=    7
   IXMIN=   -5   IYMIN=   -4   IZMIN=   -7

 serial   3D FFT for wavefunctions
 parallel 3D FFT for charge:
    minimum data exchange during FFTs selected (reduces bandwidth)

 Broyden mixing: mesh for mixing (old mesh)
   NGX =  9   NGY =  9   NGZ = 15
  (NGX  = 28   NGY  = 28   NGZ  = 48)
  gives a total of   1215 points

 charge density for first step will be calculated from the start-wavefunctions

 Maximum index for augmentation-charges          331 (set IRDMAX)

 initial charge from wavefunction
 First call to EWALD:  gamma=   0.543
 Maximum number of real-space cells 3x 3x 2
 Maximum number of reciprocal cells 3x 3x 4

--------------------------------------- Ionic step        1  -------------------------------------------

--------------------------------------- Iteration      1(   1)  ---------------------------------------

 eigenvalue-minimisations  :  8640
 total energy-change (2. order) :-0.1564207E+02  (-0.5250213E-05)
 number of electron      23.9999956 magnetization
 augmentation part        7.1644374 magnetization

 Broyden mixing:
  rms(total) = 0.12489E-02    rms(broyden)= 0.12484E-02
  rms(prec ) = 0.22099E-02
  weight for this iteration     100.00

 Free energy of the ion-electron system (eV)
  alpha Z        PSCENC =       114.46506020
  Ewald energy   TEWEN  =     -2312.07692128
  -Hartree energ DENC   =      -731.68220311
  -exchange      EXHF   =         0.00000000
  -V(xc)+E(xc)   XCENC  =       121.79430634
  PAW double counting   =      2918.40118100    -2866.52603994
  entropy T*S    EENTRO =        -0.00260730
  eigenvalues    EBANDS =      -436.14015104
  atomic energy  EATOM  =      3176.12530694
  Solvation  Ediel_sol  =         0.00000000
  free energy    TOTEN  =       -15.64206818 eV

  energy without entropy =      -15.63946089  energy(sigma->0) =      -15.64076453

--------------------------------------- Iteration      1(   2)  ---------------------------------------

 eigenvalue-minimisations  :  6480
 total energy-change (2. order) : 0.3023584E-05  (-0.1429480E-05)
 number of electron      23.9999956 magnetization
 augmentation part        7.1644374 magnetization

 Free energy of the ion-electron system (eV)
  alpha Z        PSCENC =       114.46506020
  Ewald energy   TEWEN  =     -2312.07692128
  -Hartree energ DENC   =      -731.62597897
  -exchange      EXHF   =         0.00000000
  -V(xc)+E(xc)   XCENC  =       121.79150877
  PAW double counting   =      2918.47714057    -2866.60401887
  entropy T*S    EENTRO =        -0.00260591
  eigenvalues    EBANDS =      -436.19155661
  atomic energy  EATOM  =      3176.12530694
  Solvation  Ediel_sol  =         0.00000000
  free energy    TOTEN  =       -15.64206516 eV

  energy without entropy =      -15.63945925  energy(sigma->0) =      -15.64076221

 average (electrostatic) potential at core
  the test charge radii are     1.0397
  (the norm of the test charge is              1.0000)
       1 -72.4482       2 -72.4483

 E-fermi :   8.3702     XC(G=0): -11.4980     alpha+bet :-16.1710

 val. band max:        8.3656297830   @ k =  -0.3333   0.3333   0.2500
 cond. band min:       8.3732679945   @ k =   0.5000   0.2500   0.3333
 fundamental gap:      0.0076382115
 Fermi energy:         8.3702233349

 k-point     1 :       0.0000    0.0000    0.0000
  band No.  band energies     occupation
      1     -48.4952      2.00000
      2     -48.3574      2.00000
      3     -25.1036      2.00000
      4     -24.4606      2.00000
      5     -24.4606      2.00000
      6     -24.3956      2.00000
      7     -24.3597      2.00000
      8     -24.3597      2.00000
      9       2.1936      2.00000
     10       5.6741      2.00000
     11       9.1095      0.00000
     12       9.1194      0.00000
     13       9.1194      0.00000
     14       9.2323      0.00000
     15       9.6177      0.00000
     16       9.6177      0.00000
     17       9.9673      0.00000
     18       9.9673      0.00000
     19      11.4948      0.00000
     20      11.4948      0.00000
     21      16.6604      0.00000
     22      22.9208      0.00000
     23      25.5878      0.00000
     24      25.7189      0.00000
     25      27.5035      0.00000
     26      27.5035      0.00000
     27      28.6997      0.00000
     28      28.6998      0.00000
     29      29.5942      0.00000
     30      29.5942      0.00000
     31      30.5694      0.00000
     32      33.4518      0.00000
     33      33.6477      0.00000
     34      33.6477      0.00000
     35      36.2230      0.00000
     36      36.7386      0.00000
     37      36.7387      0.00000
     38      38.3733      0.00000
     39      38.3734      0.00000
     40      40.4268      0.00000
     41      46.0596      0.00000
     42      49.6731      0.00000
     43      49.6732      0.00000
     44      49.8082      0.00000
     45      49.8082      0.00000
     46      49.9123      0.00000
     47      49.9124      0.00000
     48      52.9230      0.00000

[...]

 k-point   133 :      -0.3333    0.3333    0.5000
  band No.  band energies     occupation
      1     -48.3446      2.00000
      2     -48.3446      2.00000
      3     -24.9155      2.00000
      4     -24.9154      2.00000
      5     -24.7304      2.00000
      6     -24.7304      2.00000
      7     -24.4894      2.00000
      8     -24.4894      2.00000
      9       7.1027      2.00000
     10       7.1027      2.00000
     11       7.2766      2.00000
     12       7.2767      2.00000
     13       8.1262      2.00000
     14       8.1262      2.00000
     15      10.0195      0.00000
     16      10.0195      0.00000
     17      11.4989      0.00000
     18      11.4989      0.00000
     19      15.0910      0.00000
     20      15.0910      0.00000
     21      16.5915      0.00000
     22      16.5915      0.00000
     23      17.9042      0.00000
     24      17.9042      0.00000
     25      26.3445      0.00000
     26      26.3445      0.00000
     27      26.4002      0.00000
     28      26.4002      0.00000
     29      29.2744      0.00000
     30      29.2744      0.00000
     31      35.8294      0.00000
     32      35.8294      0.00000
     33      36.4510      0.00000
     34      36.4510      0.00000
     35      39.7075      0.00000
     36      39.7075      0.00000
     37      44.7924      0.00000
     38      44.7924      0.00000
     39      46.4283      0.00000
     40      46.4283      0.00000
     41      46.5175      0.00000
     42      46.5175      0.00000
     43      49.5622      0.00000
     44      49.5622      0.00000
     45      50.2363      0.00000
     46      50.2363      0.00000
     47      50.5339      0.00000
     48      50.5339      0.00000

 soft charge-density along one line, spin component           1
         0         1         2         3         4         5         6         7         8         9
 total charge-density along one line

------------------------ aborting loop because EDIFF is reached ----------------------------------------

  FORCE on cell =-STRESS in cart. coord.  units (eV):
  Direction    XX          YY          ZZ          XY          YZ          ZX
  Alpha Z   114.46506   114.46506   114.46506
  Ewald    -780.54983  -780.54983  -750.97886    -0.00000     0.00000     0.00000
  Hartree   239.15111   239.15111   253.30842     0.00000    -0.00000    -0.00000
  E(xc)    -126.70798  -126.70797  -126.69795    -0.00000    -0.00000    -0.00000
  Local     149.12329   149.12325   108.62249     0.00003    -0.00001    -0.00002
  n-local   -60.75221   -89.03899   -78.17123   -15.57072     1.04765    -1.42112
  augment   118.23379   118.23377   117.72425     0.00002     0.00000     0.00001
  Kinetic   349.00698   372.92829   361.52258    13.28225    -1.25295     0.87894
  Fock        0.00000     0.00000     0.00000     0.00000     0.00000     0.00000
  Total      -0.21255    -0.21255    -0.20523    -0.00000    -0.00000    -0.00000
  in kB      -9.80174    -9.80174    -9.46422    -0.00000    -0.00000    -0.00000

 VOLUME and BASIS-vectors are now :
  energy-cutoff  :      356.99
  volume of cell :       34.74
      direct lattice vectors                 reciprocal lattice vectors
     2.936640000  0.000000000  0.000000000     0.340525226 -0.196602331  0.000000000
     1.468320000  2.543204842  0.000000000     0.000000000  0.393204662  0.000000000
     0.000000000  0.000000000  4.651930000    -0.000000000 -0.000000000  0.214964542

  length of vectors
     2.936640000  2.936640000  4.651930000     0.393204662  0.393204662  0.214964542

 FORCES acting on ions
    electron-ion (+dipol)            ewald-force                    non-local-force                 convergence-correction
   -.730E-07 -.422E-07 -.883E-08   0.157E-11 0.901E-12 -.252E-13   0.569E-17 0.320E-17 0.427E-17   0.440E-07 0.254E-07 -.284E-12
   -.151E-05 -.870E-06 -.203E-07   -.157E-11 -.900E-12 0.252E-13   -.919E-17 -.183E-16 -.369E-17   -.440E-07 -.254E-07 0.215E-12
   -.158E-05 -.912E-06 -.291E-07   0.534E-14 0.781E-15 -.467E-16   -.350E-17 -.151E-16 0.585E-18   -.350E-10 -.202E-10 -.689E-13

 POSITION                                       TOTAL-FORCE (eV/Angst)
      0.00000      0.00000      0.00000        -0.000000      0.000000     -0.000000
      1.46832      0.84773      2.32597         0.000000     -0.000000      0.000000
    total drift:                               -0.000002     -0.000001     -0.000000

  FREE ENERGIE OF THE ION-ELECTRON SYSTEM (eV)
  free  energy   TOTEN  =       -15.64206516 eV

  energy  without entropy=      -15.63945925  energy(sigma->0) =      -15.64076221

 writing wavefunctions