 vasp.6.4.3 19Mar24 (build Jun 26 2024 13:02:28) complex

 executed on             LinuxIFC date 2025.08.08  18:51:07

 INCAR:
   ENCUT = 337.0432
   IBRION = -1
   ISMEAR = 0
   ISYM = 2
   LCHARG = True
   LWAVE = True
   SIGMA = 0.05
   SYSTEM = K

 POTCAR:  PAW_PBE K_sv 06Sep2000
|           W    W    AA    RRRRR   N    N  II  N    N   GGGG   !!!           |
|           W    W   A  A   R    R  NN   N  II  NN   N  G    G  !!!           |
|           W    W  A    A  R    R  N N  N  II  N N  N  G       !!!           |
|           W WW W  AAAAAA  RRRRR   N  N N  II  N  N N  G  GGG   !            |
|           WW  WW  A    A  R   R   N   NN  II  N   NN  G    G                |
|           W    W  A    A  R    R  N    N  II  N    N   GGGG   !!!           |
|     For optimal performance we recommend to set                             |
|       NCORE = 2 up to number-of-cores-per-socket                            |
|     This setting can greatly improve the performance of VASP for DFT.       |
|     The default, NCORE=1 might be grossly inefficient on modern             |
|     multi-core architectures or massively parallel machines. Do your        |
|     Unfortunately you need to use the default for GW and RPA                |
|     calculations (for HF NCORE is supported but not extensively tested      |
|     yet).                                                                   |

 POTCAR:  PAW_PBE K_sv 06Sep2000
   VRHFIN =K:  3s3p4s

   TITEL  = PAW_PBE K_sv 06Sep2000
   POMASS =   39.098; ZVAL   =    9.000    mass and valenz
   ENMAX  =  259.264; ENMIN  =  194.448 eV

PAW_PBE K_sv 06Sep2000                  :

 POSCAR: K2
  positions in direct lattice

 exchange-correlation table for PE
   RHO(1)=    0.500       N(1)  =     2000
   RHO(2)=  100.500       N(2)  =     4000

 ion  position               nearest neighbor table
   1  0.000  0.000  0.000-
   2  0.500  0.500  0.500-

  LATTYP: Found a simple cubic cell.
 ALAT       =     5.2858900000

  Lattice vectors:

 A1 = (   5.2858900000,   0.0000000000,   0.0000000000)
 A2 = (   0.0000000000,   5.2858900000,   0.0000000000)
 A3 = (   0.0000000000,   0.0000000000,   5.2858900000)

Analysis of symmetry for initial positions (statically):
 Subroutine PRICEL returns following result:

  LATTYP: Found a body centered cubic cell.
 ALAT       =     5.2858900000

[...]

   2 primitive cells build up your supercell.

 Routine SETGRP: Setting up the symmetry group for a
 simple cubic supercell.

 Subroutine GETGRP returns: Found 48 space group operations
 (whereof 48 operations were pure point group operations)
 out of a pool of 48 trial point group operations.

The static configuration has the point symmetry O_h .

Analysis of symmetry for dynamics (positions and initial velocities):
 Subroutine PRICEL returns following result:

  LATTYP: Found a body centered cubic cell.
 ALAT       =     5.2858900000

  Lattice vectors:

 A1 = (   2.6429450000,   2.6429450000,  -2.6429450000)
 A2 = (  -2.6429450000,   2.6429450000,   2.6429450000)
 A3 = (   2.6429450000,  -2.6429450000,   2.6429450000)

   2 primitive cells build up your supercell.

 Routine SETGRP: Setting up the symmetry group for a
 simple cubic supercell.

 Subroutine GETGRP returns: Found 48 space group operations
 (whereof 48 operations were pure point group operations)
 out of a pool of 48 trial point group operations.

The dynamic configuration has the point symmetry O_h .

 Subroutine INISYM returns: Found 48 space group operations
 (whereof 48 operations are pure point group operations),
 and found     2 'primitive' translations

                                     Primitive cell

  volume of cell :      73.8456

  direct lattice vectors                    reciprocal lattice vectors
     2.642945000  2.642945000 -2.642945000     0.189182900  0.189182900 -0.000000000
    -2.642945000  2.642945000  2.642945000    -0.000000000  0.189182900  0.189182900
     2.642945000 -2.642945000  2.642945000     0.189182900 -0.000000000  0.189182900

  length of vectors
     4.577715022  4.577715022  4.577715022     0.267545023  0.267545023  0.267545023

  position of ions in fractional coordinates (direct lattice)
     0.000000000  0.000000000  0.000000000

  ion indices of the primitive-cell ions
   primitive index   ion index
                 1           1

 KPOINTS: Automatic kpoint scheme

Automatic generation of k-mesh.
 Grid dimensions read from file:
 generate k-points for:   12   12   12

 Generating k-lattice:

  Cartesian coordinates                     Fractional coordinates (reciprocal lattice)
     0.015765242 -0.000000000  0.000000000     0.083333333  0.000000000  0.000000000
     0.000000000  0.015765242  0.000000000     0.000000000  0.083333333  0.000000000
    -0.000000000 -0.000000000  0.015765242     0.000000000 -0.000000000  0.083333333

  Length of vectors
     0.015765242  0.015765242  0.015765242

  Shift w.r.t. Gamma in fractional coordinates (k-lattice)
     0.000000000  0.000000000  0.000000000

 Subroutine IBZKPT returns following result:

 Found     84 irreducible k-points:

 Following reciprocal coordinates:
            Coordinates               Weight
  0.000000  0.000000  0.000000      1.000000
  0.083333  0.000000  0.000000      6.000000
  0.166667 -0.000000  0.000000      6.000000
  0.250000  0.000000  0.000000      6.000000
  0.333333 -0.000000  0.000000      6.000000
  0.416667  0.000000  0.000000      6.000000
  0.500000  0.000000  0.000000      3.000000
  0.083333  0.083333  0.000000     12.000000
  0.166667  0.083333  0.000000     24.000000
  0.250000  0.083333  0.000000     24.000000
  0.333333  0.083333  0.000000     24.000000
  0.416667  0.083333  0.000000     24.000000
  0.500000  0.083333  0.000000     12.000000
  0.166667  0.166667  0.000000     12.000000
  0.250000  0.166667  0.000000     24.000000
  0.333333  0.166667  0.000000     24.000000
  0.416667  0.166667  0.000000     24.000000
  0.500000  0.166667  0.000000     12.000000
  0.250000  0.250000  0.000000     12.000000
  0.333333  0.250000  0.000000     24.000000
  0.416667  0.250000  0.000000     24.000000
  0.500000  0.250000  0.000000     12.000000
  0.333333  0.333333  0.000000     12.000000
  0.416667  0.333333  0.000000     24.000000
  0.500000  0.333333  0.000000     12.000000
  0.416667  0.416667  0.000000     12.000000
  0.500000  0.416667  0.000000     12.000000
  0.500000  0.500000  0.000000      3.000000
  0.083333  0.083333  0.083333      8.000000
  0.166667  0.083333  0.083333     24.000000
  0.250000  0.083333  0.083333     24.000000
  0.333333  0.083333  0.083333     24.000000
  0.416667  0.083333  0.083333     24.000000
  0.500000  0.083333  0.083333     12.000000
  0.166667  0.166667  0.083333     24.000000
  0.250000  0.166667  0.083333     48.000000
  0.333333  0.166667  0.083333     48.000000
  0.416667  0.166667  0.083333     48.000000
  0.500000  0.166667  0.083333     24.000000
  0.250000  0.250000  0.083333     24.000000
  0.333333  0.250000  0.083333     48.000000
  0.416667  0.250000  0.083333     48.000000
  0.500000  0.250000  0.083333     24.000000
  0.333333  0.333333  0.083333     24.000000
  0.416667  0.333333  0.083333     48.000000
  0.500000  0.333333  0.083333     24.000000
  0.416667  0.416667  0.083333     24.000000
  0.500000  0.416667  0.083333     24.000000
  0.500000  0.500000  0.083333      6.000000
  0.166667  0.166667  0.166667      8.000000
  0.250000  0.166667  0.166667     24.000000
  0.333333  0.166667  0.166667     24.000000
  0.416667  0.166667  0.166667     24.000000
  0.500000  0.166667  0.166667     12.000000
  0.250000  0.250000  0.166667     24.000000
  0.333333  0.250000  0.166667     48.000000
  0.416667  0.250000  0.166667     48.000000
  0.500000  0.250000  0.166667     24.000000
  0.333333  0.333333  0.166667     24.000000
  0.416667  0.333333  0.166667     48.000000
[...]
  0.416667  0.333333  0.250000     48.000000
  0.500000  0.333333  0.250000     24.000000
  0.416667  0.416667  0.250000     24.000000
  0.500000  0.416667  0.250000     24.000000
  0.500000  0.500000  0.250000      6.000000
  0.333333  0.333333  0.333333      8.000000
  0.416667  0.333333  0.333333     24.000000
  0.500000  0.333333  0.333333     12.000000
  0.416667  0.416667  0.333333     24.000000
  0.500000  0.416667  0.333333     24.000000
  0.500000  0.500000  0.333333      6.000000
  0.416667  0.416667  0.416667      8.000000
  0.500000  0.416667  0.416667     12.000000
  0.500000  0.500000  0.416667      6.000000
  0.500000  0.500000  0.500000      1.000000

 Following cartesian coordinates:
            Coordinates               Weight
  0.000000  0.000000  0.000000      1.000000
  0.015765 -0.000000  0.000000      6.000000
  0.031530 -0.000000  0.000000      6.000000
  0.047296 -0.000000  0.000000      6.000000
  0.063061 -0.000000  0.000000      6.000000
  0.078826 -0.000000  0.000000      6.000000
  0.094591 -0.000000  0.000000      3.000000
  0.015765  0.015765  0.000000     12.000000
  0.031530  0.015765  0.000000     24.000000
  0.047296  0.015765  0.000000     24.000000
  0.063061  0.015765  0.000000     24.000000
  0.078826  0.015765  0.000000     24.000000
  0.094591  0.015765  0.000000     12.000000
  0.031530  0.031530  0.000000     12.000000
  0.047296  0.031530  0.000000     24.000000
  0.063061  0.031530  0.000000     24.000000
  0.078826  0.031530  0.000000     24.000000
  0.094591  0.031530  0.000000     12.000000
  0.047296  0.047296  0.000000     12.000000
  0.063061  0.047296  0.000000     24.000000
  0.078826  0.047296  0.000000     24.000000
  0.094591  0.047296  0.000000     12.000000
  0.063061  0.063061  0.000000     12.000000
  0.078826  0.063061  0.000000     24.000000
  0.094591  0.063061  0.000000     12.000000
  0.078826  0.078826  0.000000     12.000000
  0.094591  0.078826  0.000000     12.000000
  0.094591  0.094591  0.000000      3.000000
  0.015765  0.015765  0.015765      8.000000
  0.031530  0.015765  0.015765     24.000000
  0.047296  0.015765  0.015765     24.000000
  0.063061  0.015765  0.015765     24.000000
  0.078826  0.015765  0.015765     24.000000
  0.094591  0.015765  0.015765     12.000000
  0.031530  0.031530  0.015765     24.000000
  0.047296  0.031530  0.015765     48.000000
  0.063061  0.031530  0.015765     48.000000
  0.078826  0.031530  0.015765     48.000000
  0.094591  0.031530  0.015765     24.000000
  0.047296  0.047296  0.015765     24.000000
  0.063061  0.047296  0.015765     48.000000
  0.078826  0.047296  0.015765     48.000000
  0.094591  0.047296  0.015765     24.000000
  0.063061  0.063061  0.015765     24.000000
  0.078826  0.063061  0.015765     48.000000
  0.094591  0.063061  0.015765     24.000000
  0.078826  0.078826  0.015765     24.000000
  0.094591  0.078826  0.015765     24.000000
  0.094591  0.094591  0.015765      6.000000
  0.031530  0.031530  0.031530      8.000000
  0.047296  0.031530  0.031530     24.000000
  0.063061  0.031530  0.031530     24.000000
  0.078826  0.031530  0.031530     24.000000
  0.094591  0.031530  0.031530     12.000000
  0.047296  0.047296  0.031530     24.000000
  0.063061  0.047296  0.031530     48.000000
  0.078826  0.047296  0.031530     48.000000
[...]
   0.16666667  0.16666667  0.08333333       0.014
   0.25000000  0.16666667  0.08333333       0.028
   0.33333333  0.16666667  0.08333333       0.028
   0.41666667  0.16666667  0.08333333       0.028
   0.50000000  0.16666667  0.08333333       0.014
   0.25000000  0.25000000  0.08333333       0.014
   0.33333333  0.25000000  0.08333333       0.028
   0.41666667  0.25000000  0.08333333       0.028
   0.50000000  0.25000000  0.08333333       0.014
   0.33333333  0.33333333  0.08333333       0.014
   0.41666667  0.33333333  0.08333333       0.028
   0.50000000  0.33333333  0.08333333       0.014
   0.41666667  0.41666667  0.08333333       0.014
   0.50000000  0.41666667  0.08333333       0.014
   0.50000000  0.50000000  0.08333333       0.003
   0.16666667  0.16666667  0.16666667       0.005
   0.25000000  0.16666667  0.16666667       0.014
   0.33333333  0.16666667  0.16666667       0.014
   0.41666667  0.16666667  0.16666667       0.014
   0.50000000  0.16666667  0.16666667       0.007
   0.25000000  0.25000000  0.16666667       0.014
   0.33333333  0.25000000  0.16666667       0.028
   0.41666667  0.25000000  0.16666667       0.028
   0.50000000  0.25000000  0.16666667       0.014
   0.33333333  0.33333333  0.16666667       0.014
   0.41666667  0.33333333  0.16666667       0.028
[...]
   0.41666667  0.33333333  0.25000000       0.028
   0.50000000  0.33333333  0.25000000       0.014
   0.41666667  0.41666667  0.25000000       0.014
   0.50000000  0.41666667  0.25000000       0.014
   0.50000000  0.50000000  0.25000000       0.003
   0.33333333  0.33333333  0.33333333       0.005
   0.41666667  0.33333333  0.33333333       0.014
   0.50000000  0.33333333  0.33333333       0.007
   0.41666667  0.41666667  0.33333333       0.014
   0.50000000  0.41666667  0.33333333       0.014
   0.50000000  0.50000000  0.33333333       0.003
   0.41666667  0.41666667  0.41666667       0.005
   0.50000000  0.41666667  0.41666667       0.007
   0.50000000  0.50000000  0.41666667       0.003
   0.50000000  0.50000000  0.50000000       0.001

 position of ions in fractional coordinates (direct lattice)
   0.00000000  0.00000000  0.00000000
   0.50000000  0.50000000  0.50000000

 position of ions in cartesian coordinates  (Angst):
   0.00000000  0.00000000  0.00000000
   2.64294500  2.64294500  2.64294500

 k-point     1 :   0.0000 0.0000 0.0000  plane waves:    2103
 k-point     2 :   0.0833 0.0000 0.0000  plane waves:    2079
 k-point     3 :   0.1667-0.0000 0.0000  plane waves:    2052
 k-point     4 :   0.2500 0.0000 0.0000  plane waves:    2076
 k-point     5 :   0.3333-0.0000 0.0000  plane waves:    2056
 k-point     6 :   0.4167 0.0000 0.0000  plane waves:    2064
 k-point     7 :   0.5000 0.0000 0.0000  plane waves:    2088
 k-point     8 :   0.0833 0.0833 0.0000  plane waves:    2057
 k-point     9 :   0.1667 0.0833 0.0000  plane waves:    2056
 k-point    10 :   0.2500 0.0833 0.0000  plane waves:    2066
 k-point    11 :   0.3333 0.0833 0.0000  plane waves:    2065
 k-point    12 :   0.4167 0.0833 0.0000  plane waves:    2067
 k-point    13 :   0.5000 0.0833 0.0000  plane waves:    2080
 k-point    14 :   0.1667 0.1667 0.0000  plane waves:    2063
 k-point    15 :   0.2500 0.1667 0.0000  plane waves:    2068
 k-point    16 :   0.3333 0.1667 0.0000  plane waves:    2064
 k-point    17 :   0.4167 0.1667 0.0000  plane waves:    2076
 k-point    18 :   0.5000 0.1667 0.0000  plane waves:    2060
 k-point    19 :   0.2500 0.2500 0.0000  plane waves:    2063
 k-point    20 :   0.3333 0.2500 0.0000  plane waves:    2076
 k-point    21 :   0.4167 0.2500 0.0000  plane waves:    2082
 k-point    22 :   0.5000 0.2500 0.0000  plane waves:    2078
 k-point    23 :   0.3333 0.3333 0.0000  plane waves:    2073
 k-point    24 :   0.4167 0.3333 0.0000  plane waves:    2077
 k-point    25 :   0.5000 0.3333 0.0000  plane waves:    2080
 k-point    26 :   0.4167 0.4167 0.0000  plane waves:    2078
 k-point    27 :   0.5000 0.4167 0.0000  plane waves:    2084
 k-point    28 :   0.5000 0.5000 0.0000  plane waves:    2096
 k-point    29 :   0.0833 0.0833 0.0833  plane waves:    2061
 k-point    30 :   0.1667 0.0833 0.0833  plane waves:    2066
 k-point    31 :   0.2500 0.0833 0.0833  plane waves:    2066
 k-point    32 :   0.3333 0.0833 0.0833  plane waves:    2063
 k-point    33 :   0.4167 0.0833 0.0833  plane waves:    2065
 k-point    34 :   0.5000 0.0833 0.0833  plane waves:    2076
 k-point    35 :   0.1667 0.1667 0.0833  plane waves:    2073
 k-point    36 :   0.2500 0.1667 0.0833  plane waves:    2071
 k-point    37 :   0.3333 0.1667 0.0833  plane waves:    2064
 k-point    38 :   0.4167 0.1667 0.0833  plane waves:    2077
 k-point    39 :   0.5000 0.1667 0.0833  plane waves:    2078
 k-point    40 :   0.2500 0.2500 0.0833  plane waves:    2069
 k-point    41 :   0.3333 0.2500 0.0833  plane waves:    2070
 k-point    42 :   0.4167 0.2500 0.0833  plane waves:    2079
 k-point    43 :   0.5000 0.2500 0.0833  plane waves:    2082
 k-point    44 :   0.3333 0.3333 0.0833  plane waves:    2078
 k-point    45 :   0.4167 0.3333 0.0833  plane waves:    2079
 k-point    46 :   0.5000 0.3333 0.0833  plane waves:    2080
 k-point    47 :   0.4167 0.4167 0.0833  plane waves:    2081
 k-point    48 :   0.5000 0.4167 0.0833  plane waves:    2084
 k-point    49 :   0.5000 0.5000 0.0833  plane waves:    2076
 k-point    50 :   0.1667 0.1667 0.1667  plane waves:    2064
 k-point    51 :   0.2500 0.1667 0.1667  plane waves:    2075
 k-point    52 :   0.3333 0.1667 0.1667  plane waves:    2078
 k-point    53 :   0.4167 0.1667 0.1667  plane waves:    2074
 k-point    54 :   0.5000 0.1667 0.1667  plane waves:    2084
 k-point    55 :   0.2500 0.2500 0.1667  plane waves:    2074
 k-point    56 :   0.3333 0.2500 0.1667  plane waves:    2077
 k-point    57 :   0.4167 0.2500 0.1667  plane waves:    2084
 k-point    58 :   0.5000 0.2500 0.1667  plane waves:    2074
 k-point    59 :   0.3333 0.3333 0.1667  plane waves:    2090
 k-point    60 :   0.4167 0.3333 0.1667  plane waves:    2077
[...]
 k-point    70 :   0.4167 0.3333 0.2500  plane waves:    2077
 k-point    71 :   0.5000 0.3333 0.2500  plane waves:    2082
 k-point    72 :   0.4167 0.4167 0.2500  plane waves:    2079
 k-point    73 :   0.5000 0.4167 0.2500  plane waves:    2072
 k-point    74 :   0.5000 0.5000 0.2500  plane waves:    2092
 k-point    75 :   0.3333 0.3333 0.3333  plane waves:    2088
 k-point    76 :   0.4167 0.3333 0.3333  plane waves:    2085
 k-point    77 :   0.5000 0.3333 0.3333  plane waves:    2078
 k-point    78 :   0.4167 0.4167 0.3333  plane waves:    2082
 k-point    79 :   0.5000 0.4167 0.3333  plane waves:    2086
 k-point    80 :   0.5000 0.5000 0.3333  plane waves:    2064
 k-point    81 :   0.4167 0.4167 0.4167  plane waves:    2082
 k-point    82 :   0.5000 0.4167 0.4167  plane waves:    2090
 k-point    83 :   0.5000 0.5000 0.4167  plane waves:    2076
 k-point    84 :   0.5000 0.5000 0.5000  plane waves:    2008

 maximum and minimum number of plane-waves per node :      2103     2008

 maximum number of plane-waves:      2103
 maximum index in each direction:
   IXMAX=    7   IYMAX=    7   IZMAX=    7
   IXMIN=   -8   IYMIN=   -8   IZMIN=   -8

 serial   3D FFT for wavefunctions
 parallel 3D FFT for charge:
    minimum data exchange during FFTs selected (reduces bandwidth)

 Broyden mixing: mesh for mixing (old mesh)
   NGX = 15   NGY = 15   NGZ = 15
  (NGX  = 48   NGY  = 48   NGZ  = 48)
  gives a total of   3375 points

 charge density for first step will be calculated from the start-wavefunctions

 Maximum index for augmentation-charges          317 (set IRDMAX)

 initial charge from wavefunction
 First call to EWALD:  gamma=   0.335
 Maximum number of real-space cells 3x 3x 3
 Maximum number of reciprocal cells 3x 3x 3

--------------------------------------- Ionic step        1  -------------------------------------------

--------------------------------------- Iteration      1(   1)  ---------------------------------------

 eigenvalue-minimisations  :  4656
 total energy-change (2. order) :-0.2093283E+01  (-0.7134376E-06)
 number of electron      18.0000042 magnetization
 augmentation part        2.8136962 magnetization

 Broyden mixing:
  rms(total) = 0.49121E-03    rms(broyden)= 0.49119E-03
  rms(prec ) = 0.60720E-03
  weight for this iteration     100.00

 Free energy of the ion-electron system (eV)
  alpha Z        PSCENC =        33.60775403
  Ewald energy   TEWEN  =      -803.03206853
  -Hartree energ DENC   =      -542.00699323
  -exchange      EXHF   =         0.00000000
  -V(xc)+E(xc)   XCENC  =        69.81436403
  PAW double counting   =      1189.35877838    -1179.99585588
  entropy T*S    EENTRO =        -0.00177451
  eigenvalues    EBANDS =      -319.83637959
  atomic energy  EATOM  =      1549.99889196
  Solvation  Ediel_sol  =         0.00000000
  free energy    TOTEN  =        -2.09328335 eV

  energy without entropy =       -2.09150884  energy(sigma->0) =       -2.09239610

--------------------------------------- Iteration      1(   2)  ---------------------------------------

 eigenvalue-minimisations  :  4176
 total energy-change (2. order) :-0.1257702E-06  (-0.4027282E-07)
 number of electron      18.0000042 magnetization
 augmentation part        2.8136962 magnetization

 Free energy of the ion-electron system (eV)
  alpha Z        PSCENC =        33.60775403
  Ewald energy   TEWEN  =      -803.03206853
  -Hartree energ DENC   =      -542.01582645
  -exchange      EXHF   =         0.00000000
  -V(xc)+E(xc)   XCENC  =        69.81492642
  PAW double counting   =      1189.38552551    -1180.02232037
  entropy T*S    EENTRO =        -0.00177449
  eigenvalues    EBANDS =      -319.82839155
  atomic energy  EATOM  =      1549.99889196
  Solvation  Ediel_sol  =         0.00000000
  free energy    TOTEN  =        -2.09328348 eV

  energy without entropy =       -2.09150898  energy(sigma->0) =       -2.09239623

 average (electrostatic) potential at core
  the test charge radii are     1.1045
  (the norm of the test charge is              1.0000)
       1 -39.5585       2 -39.5585

 E-fermi :  -0.1343     XC(G=0):  -5.6410     alpha+bet : -3.4049

 val. band max:       -0.1594662075   @ k =   0.5000   0.2500   0.2500
 cond. band min:      -0.0936973398   @ k =   0.5000   0.3333   0.1667
 fundamental gap:      0.0657688677
 Fermi energy:        -0.1343133701

 k-point     1 :       0.0000    0.0000    0.0000
  band No.  band energies     occupation
      1     -32.2647      2.00000
      2     -32.2575      2.00000
      3     -15.7620      2.00000
      4     -15.7620      2.00000
      5     -15.7620      2.00000
      6     -15.7140      2.00000
      7     -15.7140      2.00000
      8     -15.7140      2.00000
      9      -2.2771      2.00000
     10       1.5474      0.00000
     11       1.5474      0.00000
     12       3.3402      0.00000
     13       3.3402      0.00000
     14       3.3402      0.00000
     15       4.1625      0.00000
     16       4.1625      0.00000
     17       4.1625      0.00000
     18       5.0691      0.00000
     19       5.0691      0.00000
     20       5.3644      0.00000
     21       6.2144      0.00000
     22       6.2144      0.00000
     23       6.2144      0.00000
     24       7.8120      0.00000
     25       7.8120      0.00000
     26       7.8120      0.00000
     27       9.7099      0.00000
     28       9.7099      0.00000
     29       9.8747      0.00000
     30       9.8747      0.00000
     31       9.8747      0.00000
     32      11.0741      0.00000
     33      11.0741      0.00000
     34      12.3158      0.00000
     35      13.4635      0.00000
     36      13.7166      0.00000
     37      13.7166      0.00000
     38      13.7166      0.00000
     39      14.4461      0.00000
     40      14.4461      0.00000
     41      14.4461      0.00000
     42      16.5704      0.00000
     43      16.5704      0.00000
     44      16.5704      0.00000
     45      16.5933      0.00000
     46      18.9700      0.00000
     47      18.9700      0.00000
     48      18.9700      0.00000

[...]

 k-point    84 :       0.5000    0.5000    0.5000
  band No.  band energies     occupation
      1     -32.2605      2.00000
      2     -32.2605      2.00000
      3     -15.7460      2.00000
      4     -15.7460      2.00000
      5     -15.7460      2.00000
      6     -15.7460      2.00000
      7     -15.7460      2.00000
      8     -15.7460      2.00000
      9       1.3424      0.00000
     10       1.3424      0.00000
     11       1.3424      0.00000
     12       1.3424      0.00000
     13       1.3424      0.00000
     14       1.3424      0.00000
     15       2.9198      0.00000
     16       2.9198      0.00000
     17       5.6786      0.00000
     18       5.6786      0.00000
     19       5.6786      0.00000
     20       5.6786      0.00000
     21       6.9078      0.00000
     22       6.9078      0.00000
     23       6.9078      0.00000
     24       6.9078      0.00000
     25       6.9078      0.00000
     26       6.9078      0.00000
     27      11.8356      0.00000
     28      11.8356      0.00000
     29      11.8356      0.00000
     30      11.8356      0.00000
     31      11.8356      0.00000
     32      11.8356      0.00000
     33      12.5256      0.00000
     34      12.5256      0.00000
     35      12.5256      0.00000
     36      12.5256      0.00000
     37      12.5256      0.00000
     38      12.5256      0.00000
     39      16.1010      0.00000
     40      16.1010      0.00000
     41      16.1010      0.00000
     42      16.1010      0.00000
     43      16.1010      0.00000
     44      16.1010      0.00000
     45      16.1924      0.00000
     46      16.1924      0.00000
     47      16.6932      0.00000
     48      16.6932      0.00000

 soft charge-density along one line, spin component           1
         0         1         2         3         4         5         6         7         8         9
 total charge-density along one line

------------------------ aborting loop because EDIFF is reached ----------------------------------------

  FORCE on cell =-STRESS in cart. coord.  units (eV):
  Direction    XX          YY          ZZ          XY          YZ          ZX
  Alpha Z    33.60775    33.60775    33.60775
  Ewald    -267.67734  -267.67734  -267.67734     0.00000    -0.00000    -0.00000
  Hartree   180.67588   180.67588   180.67588    -0.00000    -0.00000    -0.00000
  E(xc)     -73.51927   -73.51927   -73.51927     0.00000    -0.00000    -0.00000
  Local     -16.44046   -16.44046   -16.44046    -0.00000     0.00000    -0.00000
  n-local  -113.88420  -114.88154  -115.33854     0.50635     0.18269     0.21408
  augment    16.46589    16.46589    16.46589     0.00000     0.00000     0.00000
  Kinetic   242.23416   241.20889   241.09072     0.47114     0.29411     0.25794
  Fock        0.00000     0.00000     0.00000     0.00000     0.00000     0.00000
  Total      -0.07772    -0.07772    -0.07772    -0.00000     0.00000    -0.00000
  in kB      -0.84308    -0.84308    -0.84308    -0.00000     0.00000    -0.00000

 VOLUME and BASIS-vectors are now :
  energy-cutoff  :      337.04
  volume of cell :      147.69
      direct lattice vectors                 reciprocal lattice vectors
     5.285890000  0.000000000  0.000000000     0.189182900 -0.000000000  0.000000000
     0.000000000  5.285890000  0.000000000     0.000000000  0.189182900  0.000000000
     0.000000000  0.000000000  5.285890000    -0.000000000 -0.000000000  0.189182900

  length of vectors
     5.285890000  5.285890000  5.285890000     0.189182900  0.189182900  0.189182900

 FORCES acting on ions
    electron-ion (+dipol)            ewald-force                    non-local-force                 convergence-correction
   -.682E-15 0.492E-15 -.942E-16   -.374E-14 -.144E-14 -.146E-14   0.737E-25 -.345E-25 0.238E-24   0.464E-14 0.112E-13 0.485E-14
   0.150E-12 0.311E-12 -.125E-11   0.354E-14 0.179E-14 0.101E-14   0.383E-25 -.630E-25 0.158E-24   0.384E-14 0.118E-13 0.152E-13
   0.149E-12 0.311E-12 -.125E-11   -.202E-15 0.355E-15 -.448E-15   0.112E-24 -.975E-25 0.396E-24   0.847E-14 0.230E-13 0.200E-13

 POSITION                                       TOTAL-FORCE (eV/Angst)
      0.00000      0.00000      0.00000        -0.000000      0.000000      0.000000
      2.64295      2.64295      2.64295         0.000000     -0.000000     -0.000000
    total drift:                                0.000000      0.000000     -0.000000

  FREE ENERGIE OF THE ION-ELECTRON SYSTEM (eV)
  free  energy   TOTEN  =        -2.09328348 eV

  energy  without entropy=       -2.09150898  energy(sigma->0) =       -2.09239623

 writing wavefunctions