 vasp.6.4.3 19Mar24 (build Jun 26 2024 13:02:28) complex

 executed on             LinuxIFC date 2025.08.08  18:48:16

 INCAR:
   ENCUT = 342.7749
   IBRION = -1
   ISMEAR = 0
   ISYM = 2
   LCHARG = True
   LWAVE = True
   SIGMA = 0.05
   SYSTEM = V

 POTCAR:  PAW_PBE V_sv 02Aug2007
|           W    W    AA    RRRRR   N    N  II  N    N   GGGG   !!!           |
|           W    W   A  A   R    R  NN   N  II  NN   N  G    G  !!!           |
|           W    W  A    A  R    R  N N  N  II  N N  N  G       !!!           |
|           W WW W  AAAAAA  RRRRR   N  N N  II  N  N N  G  GGG   !            |
|           WW  WW  A    A  R   R   N   NN  II  N   NN  G    G                |
|           W    W  A    A  R    R  N    N  II  N    N   GGGG   !!!           |
|     For optimal performance we recommend to set                             |
|       NCORE = 2 up to number-of-cores-per-socket                            |
|     This setting can greatly improve the performance of VASP for DFT.       |
|     The default, NCORE=1 might be grossly inefficient on modern             |
|     multi-core architectures or massively parallel machines. Do your        |
|     Unfortunately you need to use the default for GW and RPA                |
|     calculations (for HF NCORE is supported but not extensively tested      |
|     yet).                                                                   |

 POTCAR:  PAW_PBE V_sv 02Aug2007
   VRHFIN =V: p6 d4 s1

   TITEL  = PAW_PBE V_sv 02Aug2007
   POMASS =   50.941; ZVAL   =   13.000    mass and valenz
   ENMAX  =  263.673; ENMIN  =  197.755 eV

PAW_PBE V_sv 02Aug2007                  :

 POSCAR: V2
  positions in direct lattice

 exchange-correlation table for PE
   RHO(1)=    0.500       N(1)  =     2000
   RHO(2)=  100.500       N(2)  =     4000

 ion  position               nearest neighbor table
   1  0.000  0.000  0.000-   2 2.60   2 2.60   2 2.60   2 2.60   2 2.60   2 2.60   2 2.60   2 2.60

   2  0.500  0.500  0.500-   1 2.60   1 2.60   1 2.60   1 2.60   1 2.60   1 2.60   1 2.60   1 2.60

  LATTYP: Found a simple cubic cell.
 ALAT       =     2.9989400000

  Lattice vectors:

 A1 = (   2.9989400000,   0.0000000000,   0.0000000000)
 A2 = (   0.0000000000,   2.9989400000,   0.0000000000)
 A3 = (   0.0000000000,   0.0000000000,   2.9989400000)

Analysis of symmetry for initial positions (statically):
 Subroutine PRICEL returns following result:

  LATTYP: Found a body centered cubic cell.
 ALAT       =     2.9989400000

[...]

   2 primitive cells build up your supercell.

 Routine SETGRP: Setting up the symmetry group for a
 simple cubic supercell.

 Subroutine GETGRP returns: Found 48 space group operations
 (whereof 48 operations were pure point group operations)
 out of a pool of 48 trial point group operations.

The static configuration has the point symmetry O_h .

Analysis of symmetry for dynamics (positions and initial velocities):
 Subroutine PRICEL returns following result:

  LATTYP: Found a body centered cubic cell.
 ALAT       =     2.9989400000

  Lattice vectors:

 A1 = (   1.4994700000,   1.4994700000,  -1.4994700000)
 A2 = (  -1.4994700000,   1.4994700000,   1.4994700000)
 A3 = (   1.4994700000,  -1.4994700000,   1.4994700000)

   2 primitive cells build up your supercell.

 Routine SETGRP: Setting up the symmetry group for a
 simple cubic supercell.

 Subroutine GETGRP returns: Found 48 space group operations
 (whereof 48 operations were pure point group operations)
 out of a pool of 48 trial point group operations.

The dynamic configuration has the point symmetry O_h .

 Subroutine INISYM returns: Found 48 space group operations
 (whereof 48 operations are pure point group operations),
 and found     2 'primitive' translations

                                     Primitive cell

  volume of cell :      13.4857

  direct lattice vectors                    reciprocal lattice vectors
     1.499470000  1.499470000 -1.499470000     0.333451153  0.333451153  0.000000000
    -1.499470000  1.499470000  1.499470000    -0.000000000  0.333451153  0.333451153
     1.499470000 -1.499470000  1.499470000     0.333451153 -0.000000000  0.333451153

  length of vectors
     2.597158224  2.597158224  2.597158224     0.471571143  0.471571143  0.471571143

  position of ions in fractional coordinates (direct lattice)
     0.000000000  0.000000000  0.000000000

  ion indices of the primitive-cell ions
   primitive index   ion index
                 1           1

 KPOINTS: Automatic kpoint scheme

Automatic generation of k-mesh.
 Grid dimensions read from file:
 generate k-points for:    8    8    8

 Generating k-lattice:

  Cartesian coordinates                     Fractional coordinates (reciprocal lattice)
     0.041681394 -0.000000000  0.000000000     0.125000000  0.000000000  0.000000000
     0.000000000  0.041681394  0.000000000     0.000000000  0.125000000  0.000000000
    -0.000000000 -0.000000000  0.041681394     0.000000000  0.000000000  0.125000000

  Length of vectors
     0.041681394  0.041681394  0.041681394

  Shift w.r.t. Gamma in fractional coordinates (k-lattice)
     0.000000000  0.000000000  0.000000000

 Subroutine IBZKPT returns following result:

 Found     35 irreducible k-points:

 Following reciprocal coordinates:
            Coordinates               Weight
  0.000000  0.000000  0.000000      1.000000
  0.125000  0.000000  0.000000      6.000000
  0.250000  0.000000  0.000000      6.000000
  0.375000  0.000000  0.000000      6.000000
  0.500000  0.000000  0.000000      3.000000
  0.125000  0.125000  0.000000     12.000000
  0.250000  0.125000  0.000000     24.000000
  0.375000  0.125000  0.000000     24.000000
  0.500000  0.125000  0.000000     12.000000
  0.250000  0.250000  0.000000     12.000000
  0.375000  0.250000  0.000000     24.000000
  0.500000  0.250000  0.000000     12.000000
  0.375000  0.375000  0.000000     12.000000
  0.500000  0.375000  0.000000     12.000000
  0.500000  0.500000  0.000000      3.000000
  0.125000  0.125000  0.125000      8.000000
  0.250000  0.125000  0.125000     24.000000
  0.375000  0.125000  0.125000     24.000000
  0.500000  0.125000  0.125000     12.000000
  0.250000  0.250000  0.125000     24.000000
  0.375000  0.250000  0.125000     48.000000
  0.500000  0.250000  0.125000     24.000000
  0.375000  0.375000  0.125000     24.000000
  0.500000  0.375000  0.125000     24.000000
  0.500000  0.500000  0.125000      6.000000
  0.250000  0.250000  0.250000      8.000000
  0.375000  0.250000  0.250000     24.000000
  0.500000  0.250000  0.250000     12.000000
  0.375000  0.375000  0.250000     24.000000
  0.500000  0.375000  0.250000     24.000000
  0.500000  0.500000  0.250000      6.000000
  0.375000  0.375000  0.375000      8.000000
  0.500000  0.375000  0.375000     12.000000
  0.500000  0.500000  0.375000      6.000000
  0.500000  0.500000  0.500000      1.000000

 Following cartesian coordinates:
            Coordinates               Weight
  0.000000  0.000000  0.000000      1.000000
  0.041681 -0.000000  0.000000      6.000000
  0.083363 -0.000000  0.000000      6.000000
  0.125044 -0.000000  0.000000      6.000000
  0.166726 -0.000000  0.000000      3.000000
  0.041681  0.041681  0.000000     12.000000
  0.083363  0.041681  0.000000     24.000000
  0.125044  0.041681  0.000000     24.000000
  0.166726  0.041681  0.000000     12.000000
  0.083363  0.083363  0.000000     12.000000
  0.125044  0.083363  0.000000     24.000000
  0.166726  0.083363  0.000000     12.000000
  0.125044  0.125044  0.000000     12.000000
  0.166726  0.125044  0.000000     12.000000
  0.166726  0.166726  0.000000      3.000000
  0.041681  0.041681  0.041681      8.000000
  0.083363  0.041681  0.041681     24.000000
  0.125044  0.041681  0.041681     24.000000
  0.166726  0.041681  0.041681     12.000000
  0.083363  0.083363  0.041681     24.000000
  0.125044  0.083363  0.041681     48.000000
  0.166726  0.083363  0.041681     24.000000
  0.125044  0.125044  0.041681     24.000000
  0.166726  0.125044  0.041681     24.000000
  0.166726  0.166726  0.041681      6.000000
  0.083363  0.083363  0.083363      8.000000
  0.125044  0.083363  0.083363     24.000000
  0.166726  0.083363  0.083363     12.000000
  0.125044  0.125044  0.083363     24.000000
  0.166726  0.125044  0.083363     24.000000
  0.166726  0.166726  0.083363      6.000000
  0.125044  0.125044  0.125044      8.000000
  0.166726  0.125044  0.125044     12.000000
  0.166726  0.166726  0.125044      6.000000
  0.166726  0.166726  0.166726      1.000000

 Subroutine IBZKPT_HF returns following result:

 Found    512 k-points in 1st BZ
 the following    512 k-points will be used (e.g. in the exchange kernel)
 Following reciprocal coordinates:   # in IRBZ
  0.000000  0.000000  0.000000    0.00195312   1 t-inv F
  0.125000  0.000000  0.000000    0.00195312   2 t-inv F
  0.250000  0.000000  0.000000    0.00195312   3 t-inv F
  0.375000  0.000000  0.000000    0.00195312   4 t-inv F
  0.500000  0.000000  0.000000    0.00195312   5 t-inv F
  0.125000  0.125000  0.000000    0.00195312   6 t-inv F
  0.250000  0.125000  0.000000    0.00195312   7 t-inv F
  0.375000  0.125000  0.000000    0.00195312   8 t-inv F
  0.500000  0.125000  0.000000    0.00195312   9 t-inv F
  0.250000  0.250000  0.000000    0.00195312  10 t-inv F
  0.375000  0.250000  0.000000    0.00195312  11 t-inv F
  0.500000  0.250000  0.000000    0.00195312  12 t-inv F
  0.375000  0.375000  0.000000    0.00195312  13 t-inv F
  0.500000  0.375000  0.000000    0.00195312  14 t-inv F
  0.500000  0.500000  0.000000    0.00195312  15 t-inv F
  0.125000  0.125000  0.125000    0.00195312  16 t-inv F
  0.250000  0.125000  0.125000    0.00195312  17 t-inv F
  0.375000  0.125000  0.125000    0.00195312  18 t-inv F
  0.500000  0.125000  0.125000    0.00195312  19 t-inv F
  0.250000  0.250000  0.125000    0.00195312  20 t-inv F
  0.375000  0.250000  0.125000    0.00195312  21 t-inv F
  0.500000  0.250000  0.125000    0.00195312  22 t-inv F
  0.375000  0.375000  0.125000    0.00195312  23 t-inv F
  0.500000  0.375000  0.125000    0.00195312  24 t-inv F
  0.500000  0.500000  0.125000    0.00195312  25 t-inv F
  0.250000  0.250000  0.250000    0.00195312  26 t-inv F
  0.375000  0.250000  0.250000    0.00195312  27 t-inv F
  0.500000  0.250000  0.250000    0.00195312  28 t-inv F
  0.375000  0.375000  0.250000    0.00195312  29 t-inv F
  0.500000  0.375000  0.250000    0.00195312  30 t-inv F
  0.500000  0.500000  0.250000    0.00195312  31 t-inv F
  0.375000  0.375000  0.375000    0.00195312  32 t-inv F
  0.500000  0.375000  0.375000    0.00195312  33 t-inv F
  0.500000  0.500000  0.375000    0.00195312  34 t-inv F
  0.500000  0.500000  0.500000    0.00195312  35 t-inv F
 -0.125000 -0.000000  0.000000    0.00195312   2 t-inv F
  0.000000  0.125000  0.000000    0.00195312   2 t-inv F
  0.000000 -0.125000 -0.000000    0.00195312   2 t-inv F
  0.000000  0.000000  0.125000    0.00195312   2 t-inv F
 -0.000000  0.000000 -0.125000    0.00195312   2 t-inv F
 -0.250000 -0.000000  0.000000    0.00195312   3 t-inv F
  0.000000  0.250000  0.000000    0.00195312   3 t-inv F
[...]
 Gauss-broadening in eV      SIGMA  =   0.05

  energy-cutoff  :      342.77
  volume of cell :       26.97
      direct lattice vectors                 reciprocal lattice vectors
     2.998940000  0.000000000  0.000000000     0.333451153 -0.000000000  0.000000000
     0.000000000  2.998940000  0.000000000     0.000000000  0.333451153  0.000000000
     0.000000000  0.000000000  2.998940000    -0.000000000 -0.000000000  0.333451153

[...]

 old parameters found on file WAVECAR:
  energy-cutoff  :      342.77
  volume of cell :       26.97
      direct lattice vectors                 reciprocal lattice vectors
     2.998940000  0.000000000  0.000000000     0.333451153 -0.000000000  0.000000000
     0.000000000  2.998940000  0.000000000     0.000000000  0.333451153  0.000000000
     0.000000000  0.000000000  2.998940000    -0.000000000 -0.000000000  0.333451153

  length of vectors

 k-points in units of 2pi/SCALE and weight: Automatic kpoint scheme
   0.00000000  0.00000000  0.00000000       0.002
   0.04168139 -0.00000000  0.00000000       0.012
   0.08336279 -0.00000000  0.00000000       0.012
   0.12504418 -0.00000000  0.00000000       0.012
   0.16672558 -0.00000000  0.00000000       0.006
   0.04168139  0.04168139  0.00000000       0.023
   0.08336279  0.04168139  0.00000000       0.047
   0.12504418  0.04168139  0.00000000       0.047
   0.16672558  0.04168139  0.00000000       0.023
   0.08336279  0.08336279  0.00000000       0.023
   0.12504418  0.08336279  0.00000000       0.047
   0.16672558  0.08336279  0.00000000       0.023
   0.12504418  0.12504418  0.00000000       0.023
   0.16672558  0.12504418  0.00000000       0.023
   0.16672558  0.16672558  0.00000000       0.006
   0.04168139  0.04168139  0.04168139       0.016
   0.08336279  0.04168139  0.04168139       0.047
   0.12504418  0.04168139  0.04168139       0.047
   0.16672558  0.04168139  0.04168139       0.023
   0.08336279  0.08336279  0.04168139       0.047
   0.12504418  0.08336279  0.04168139       0.094
   0.16672558  0.08336279  0.04168139       0.047
   0.12504418  0.12504418  0.04168139       0.047
   0.16672558  0.12504418  0.04168139       0.047
   0.16672558  0.16672558  0.04168139       0.012
   0.08336279  0.08336279  0.08336279       0.016
   0.12504418  0.08336279  0.08336279       0.047
   0.16672558  0.08336279  0.08336279       0.023
   0.12504418  0.12504418  0.08336279       0.047
   0.16672558  0.12504418  0.08336279       0.047
   0.16672558  0.16672558  0.08336279       0.012
   0.12504418  0.12504418  0.12504418       0.016
   0.16672558  0.12504418  0.12504418       0.023
   0.16672558  0.16672558  0.12504418       0.012
   0.16672558  0.16672558  0.16672558       0.002

 k-points in reciprocal lattice and weights: Automatic kpoint scheme
   0.00000000  0.00000000  0.00000000       0.002
   0.12500000  0.00000000  0.00000000       0.012
   0.25000000  0.00000000  0.00000000       0.012
   0.37500000  0.00000000  0.00000000       0.012
   0.50000000  0.00000000  0.00000000       0.006
   0.12500000  0.12500000  0.00000000       0.023
   0.25000000  0.12500000  0.00000000       0.047
   0.37500000  0.12500000  0.00000000       0.047
   0.50000000  0.12500000  0.00000000       0.023
   0.25000000  0.25000000  0.00000000       0.023
   0.37500000  0.25000000  0.00000000       0.047
   0.50000000  0.25000000  0.00000000       0.023
   0.37500000  0.37500000  0.00000000       0.023
   0.50000000  0.37500000  0.00000000       0.023
   0.50000000  0.50000000  0.00000000       0.006
   0.12500000  0.12500000  0.12500000       0.016
   0.25000000  0.12500000  0.12500000       0.047
   0.37500000  0.12500000  0.12500000       0.047
   0.50000000  0.12500000  0.12500000       0.023
   0.25000000  0.25000000  0.12500000       0.047
   0.37500000  0.25000000  0.12500000       0.094
   0.50000000  0.25000000  0.12500000       0.047
   0.37500000  0.37500000  0.12500000       0.047
   0.50000000  0.37500000  0.12500000       0.047
   0.50000000  0.50000000  0.12500000       0.012
   0.25000000  0.25000000  0.25000000       0.016
   0.37500000  0.25000000  0.25000000       0.047
   0.50000000  0.25000000  0.25000000       0.023
   0.37500000  0.37500000  0.25000000       0.047
   0.50000000  0.37500000  0.25000000       0.047
   0.50000000  0.50000000  0.25000000       0.012
   0.37500000  0.37500000  0.37500000       0.016
   0.50000000  0.37500000  0.37500000       0.023
   0.50000000  0.50000000  0.37500000       0.012
   0.50000000  0.50000000  0.50000000       0.002

 position of ions in fractional coordinates (direct lattice)
   0.00000000  0.00000000  0.00000000
   0.50000000  0.50000000  0.50000000

 position of ions in cartesian coordinates  (Angst):
   0.00000000  0.00000000  0.00000000
   1.49947000  1.49947000  1.49947000

 k-point     1 :   0.0000 0.0000 0.0000  plane waves:     389
 k-point     2 :   0.1250 0.0000 0.0000  plane waves:     389
 k-point     3 :   0.2500 0.0000 0.0000  plane waves:     389
 k-point     4 :   0.3750 0.0000 0.0000  plane waves:     401
 k-point     5 :   0.5000 0.0000 0.0000  plane waves:     402
 k-point     6 :   0.1250 0.1250 0.0000  plane waves:     391
 k-point     7 :   0.2500 0.1250 0.0000  plane waves:     398
 k-point     8 :   0.3750 0.1250 0.0000  plane waves:     388
 k-point     9 :   0.5000 0.1250 0.0000  plane waves:     386
 k-point    10 :   0.2500 0.2500 0.0000  plane waves:     392
 k-point    11 :   0.3750 0.2500 0.0000  plane waves:     389
 k-point    12 :   0.5000 0.2500 0.0000  plane waves:     386
 k-point    13 :   0.3750 0.3750 0.0000  plane waves:     380
 k-point    14 :   0.5000 0.3750 0.0000  plane waves:     384
 k-point    15 :   0.5000 0.5000 0.0000  plane waves:     372
 k-point    16 :   0.1250 0.1250 0.1250  plane waves:     395
 k-point    17 :   0.2500 0.1250 0.1250  plane waves:     396
 k-point    18 :   0.3750 0.1250 0.1250  plane waves:     392
 k-point    19 :   0.5000 0.1250 0.1250  plane waves:     382
 k-point    20 :   0.2500 0.2500 0.1250  plane waves:     396
 k-point    21 :   0.3750 0.2500 0.1250  plane waves:     391
 k-point    22 :   0.5000 0.2500 0.1250  plane waves:     384
 k-point    23 :   0.3750 0.3750 0.1250  plane waves:     385
 k-point    24 :   0.5000 0.3750 0.1250  plane waves:     384
 k-point    25 :   0.5000 0.5000 0.1250  plane waves:     376
 k-point    26 :   0.2500 0.2500 0.2500  plane waves:     389
 k-point    27 :   0.3750 0.2500 0.2500  plane waves:     382
 k-point    28 :   0.5000 0.2500 0.2500  plane waves:     392
 k-point    29 :   0.3750 0.3750 0.2500  plane waves:     387
 k-point    30 :   0.5000 0.3750 0.2500  plane waves:     386
 k-point    31 :   0.5000 0.5000 0.2500  plane waves:     380
 k-point    32 :   0.3750 0.3750 0.3750  plane waves:     389
 k-point    33 :   0.5000 0.3750 0.3750  plane waves:     384
 k-point    34 :   0.5000 0.5000 0.3750  plane waves:     388
 k-point    35 :   0.5000 0.5000 0.5000  plane waves:     360

 maximum and minimum number of plane-waves per node :       402      360

 maximum number of plane-waves:       402
 maximum index in each direction:
   IXMAX=    4   IYMAX=    4   IZMAX=    4
   IXMIN=   -5   IYMIN=   -4   IZMIN=   -4

 serial   3D FFT for wavefunctions
 parallel 3D FFT for charge:
    minimum data exchange during FFTs selected (reduces bandwidth)

 Broyden mixing: mesh for mixing (old mesh)
   NGX =  9   NGY =  9   NGZ =  9
  (NGX  = 28   NGY  = 28   NGZ  = 28)
  gives a total of    729 points

 charge density for first step will be calculated from the start-wavefunctions

 Maximum index for augmentation-charges          277 (set IRDMAX)

 initial charge from wavefunction
 First call to EWALD:  gamma=   0.591
 Maximum number of real-space cells 3x 3x 3
 Maximum number of reciprocal cells 3x 3x 3

--------------------------------------- Ionic step        1  -------------------------------------------

--------------------------------------- Iteration      1(   1)  ---------------------------------------

 eigenvalue-minimisations  :  2928
 total energy-change (2. order) :-0.1798320E+02  (-0.3075498E-04)
 number of electron      26.0000349 magnetization
 augmentation part        9.4510856 magnetization

 Broyden mixing:
  rms(total) = 0.56730E-02    rms(broyden)= 0.56722E-02
  rms(prec ) = 0.10011E-01
  weight for this iteration     100.00

 Free energy of the ion-electron system (eV)
  alpha Z        PSCENC =       181.20010233
  Ewald energy   TEWEN  =     -2953.14600272
  -Hartree energ DENC   =      -786.53540897
  -exchange      EXHF   =         0.00000000
  -V(xc)+E(xc)   XCENC  =       139.84658361
  PAW double counting   =      3873.43758738    -3910.37915074
  entropy T*S    EENTRO =        -0.00618799
  eigenvalues    EBANDS =      -466.50284840
  atomic energy  EATOM  =      3904.10212284
  Solvation  Ediel_sol  =         0.00000000
  free energy    TOTEN  =       -17.98320267 eV

  energy without entropy =      -17.97701468  energy(sigma->0) =      -17.98010868

--------------------------------------- Iteration      1(   2)  ---------------------------------------

 eigenvalue-minimisations  :  1680
 total energy-change (2. order) : 0.2207391E-04  (-0.1382775E-04)
 number of electron      26.0000349 magnetization
 augmentation part        9.4510856 magnetization

 Free energy of the ion-electron system (eV)
  alpha Z        PSCENC =       181.20010233
  Ewald energy   TEWEN  =     -2953.14600272
  -Hartree energ DENC   =      -786.36096357
  -exchange      EXHF   =         0.00000000
  -V(xc)+E(xc)   XCENC  =       139.83796409
  PAW double counting   =      3874.14652065    -3911.08494251
  entropy T*S    EENTRO =        -0.00616420
  eigenvalues    EBANDS =      -466.67181750
  atomic energy  EATOM  =      3904.10212284
  Solvation  Ediel_sol  =         0.00000000
  free energy    TOTEN  =       -17.98318060 eV

  energy without entropy =      -17.97701640  energy(sigma->0) =      -17.98009850

 average (electrostatic) potential at core
  the test charge radii are     0.9956
  (the norm of the test charge is              1.0000)
       1 -70.1519       2 -70.1519

 E-fermi :   9.7090     XC(G=0): -12.8998     alpha+bet :-18.6665

 val. band max:        9.6975259682   @ k =   0.2500   0.1250   0.0000
 cond. band min:       9.7178549282   @ k =   0.3750   0.1250   0.0000
 fundamental gap:      0.0203289601
 Fermi energy:         9.7090336381

 k-point     1 :       0.0000    0.0000    0.0000
  band No.  band energies     occupation
      1     -53.9994      2.00000
      2     -53.6663      2.00000
      3     -27.9306      2.00000
      4     -27.9306      2.00000
      5     -27.9306      2.00000
      6     -27.3173      2.00000
      7     -27.3173      2.00000
      8     -27.3173      2.00000
      9       3.1056      2.00000
     10       6.7103      2.00000
     11       6.7103      2.00000
     12      10.1196      0.00000
     13      10.1196      0.00000
     14      10.1196      0.00000
     15      12.1151      0.00000
     16      12.1151      0.00000
     17      13.4255      0.00000
     18      13.4255      0.00000
     19      13.4255      0.00000
     20      19.8881      0.00000
     21      19.8881      0.00000
     22      19.8881      0.00000
     23      26.6084      0.00000
     24      26.6084      0.00000
     25      30.1715      0.00000
     26      30.1715      0.00000
     27      30.1715      0.00000
     28      31.5258      0.00000
     29      37.2095      0.00000
     30      37.2095      0.00000
     31      41.4760      0.00000
     32      41.4760      0.00000
     33      41.4760      0.00000
     34      41.9733      0.00000
     35      42.1848      0.00000
     36      42.1848      0.00000
     37      42.1848      0.00000
     38      53.0087      0.00000
     39      53.0087      0.00000
     40      53.0087      0.00000
     41      54.7356      0.00000
     42      54.7356      0.00000
     43      54.7356      0.00000
     44      55.6147      0.00000
     45      63.7907      0.00000
     46      64.9470      0.00000
     47      64.9470      0.00000
     48      64.9470      0.00000

[...]

 k-point    35 :       0.5000    0.5000    0.5000
  band No.  band energies     occupation
      1     -53.7857      2.00000
      2     -53.7857      2.00000
      3     -27.7618      2.00000
      4     -27.7618      2.00000
      5     -27.7618      2.00000
      6     -27.7618      2.00000
      7     -27.7618      2.00000
      8     -27.7618      2.00000
      9       8.5876      2.00000
     10       8.5876      2.00000
     11       8.5876      2.00000
     12       8.5876      2.00000
     13       8.5876      2.00000
     14       8.5876      2.00000
     15      12.5392      0.00000
     16      12.5392      0.00000
     17      12.5392      0.00000
     18      12.5392      0.00000
     19      20.0884      0.00000
     20      20.0884      0.00000
     21      20.0884      0.00000
     22      20.0884      0.00000
     23      20.0884      0.00000
     24      20.0884      0.00000
     25      21.5882      0.00000
     26      21.5882      0.00000
     27      42.5494      0.00000
     28      42.5494      0.00000
     29      42.5494      0.00000
     30      42.5494      0.00000
     31      42.5494      0.00000
     32      42.5494      0.00000
     33      43.8487      0.00000
     34      43.8487      0.00000
     35      43.8487      0.00000
     36      43.8487      0.00000
     37      43.8487      0.00000
     38      43.8487      0.00000
     39      53.6269      0.00000
     40      53.6269      0.00000
     41      53.6269      0.00000
     42      53.6269      0.00000
     43      58.2717      0.00000
     44      58.2717      0.00000
     45      58.2717      0.00000
     46      58.2717      0.00000
     47      58.2717      0.00000
     48      58.2717      0.00000

 soft charge-density along one line, spin component           1
         0         1         2         3         4         5         6         7         8         9
 total charge-density along one line

------------------------ aborting loop because EDIFF is reached ----------------------------------------

  FORCE on cell =-STRESS in cart. coord.  units (eV):
  Direction    XX          YY          ZZ          XY          YZ          ZX
  Alpha Z   181.20010   181.20010   181.20010
  Ewald    -984.38193  -984.38193  -984.38193    -0.00000     0.00000     0.00000
  Hartree   262.12628   262.12628   262.12628    -0.00000    -0.00000    -0.00000
  E(xc)    -145.17858  -145.17858  -145.17858     0.00000    -0.00000    -0.00000
  Local     234.38673   234.38673   234.38673    -0.00000     0.00000    -0.00000
  n-local   -80.69023   -74.01977   -67.07242     1.28958    -0.60387     0.34350
  augment   147.41501   147.41501   147.41501     0.00000    -0.00000     0.00000
  Kinetic   372.48957   376.16317   385.93617     1.24499    -2.26873     0.20680
  Fock        0.00000     0.00000     0.00000     0.00000     0.00000     0.00000
  Total      -0.16357    -0.16357    -0.16357    -0.00000    -0.00000    -0.00000
  in kB      -9.71631    -9.71631    -9.71631    -0.00000    -0.00000    -0.00000

 VOLUME and BASIS-vectors are now :
  energy-cutoff  :      342.77
  volume of cell :       26.97
      direct lattice vectors                 reciprocal lattice vectors
     2.998940000  0.000000000  0.000000000     0.333451153 -0.000000000  0.000000000
     0.000000000  2.998940000  0.000000000     0.000000000  0.333451153  0.000000000
     0.000000000  0.000000000  2.998940000    -0.000000000 -0.000000000  0.333451153

  length of vectors
     2.998940000  2.998940000  2.998940000     0.333451153  0.333451153  0.333451153

 FORCES acting on ions
    electron-ion (+dipol)            ewald-force                    non-local-force                 convergence-correction
   -.497E-13 -.439E-13 -.586E-13   -.738E-14 -.698E-14 -.437E-14   0.149E-25 -.556E-26 0.353E-26   0.720E-15 -.464E-14 -.388E-14
   0.399E-12 -.219E-11 -.565E-13   0.824E-14 0.842E-14 0.272E-14   0.217E-25 0.358E-25 0.524E-26   -.853E-14 0.965E-14 -.728E-14
   0.349E-12 -.224E-11 -.115E-12   0.866E-15 0.143E-14 -.165E-14   0.366E-25 0.302E-25 0.877E-26   -.781E-14 0.502E-14 -.112E-13

 POSITION                                       TOTAL-FORCE (eV/Angst)
      0.00000      0.00000      0.00000         0.000000      0.000000      0.000000
      1.49947      1.49947      1.49947        -0.000000     -0.000000     -0.000000
    total drift:                                0.000000     -0.000000     -0.000000

  FREE ENERGIE OF THE ION-ELECTRON SYSTEM (eV)
  free  energy   TOTEN  =       -17.98318060 eV

  energy  without entropy=      -17.97701640  energy(sigma->0) =      -17.98009850

 writing wavefunctions