 vasp.6.4.3 19Mar24 (build Jun 26 2024 13:02:28) complex

 executed on             LinuxIFC date 2025.08.08  18:46:58

 INCAR:
   ENCUT = 240.9303
   IBRION = -1
   ISMEAR = 0
   ISYM = 2
   LCHARG = True
   LWAVE = True
   SIGMA = 0.05
   SYSTEM = Kr

 POTCAR:  PAW_PBE Kr 07Sep2000
|           W    W    AA    RRRRR   N    N  II  N    N   GGGG   !!!           |
|           W    W   A  A   R    R  NN   N  II  NN   N  G    G  !!!           |
|           W    W  A    A  R    R  N N  N  II  N N  N  G       !!!           |
|           W WW W  AAAAAA  RRRRR   N  N N  II  N  N N  G  GGG   !            |
|           WW  WW  A    A  R   R   N   NN  II  N   NN  G    G                |
|           W    W  A    A  R    R  N    N  II  N    N   GGGG   !!!           |
|     For optimal performance we recommend to set                             |
|       NCORE = 2 up to number-of-cores-per-socket                            |
|     This setting can greatly improve the performance of VASP for DFT.       |
|     The default, NCORE=1 might be grossly inefficient on modern             |
|     multi-core architectures or massively parallel machines. Do your        |
|     Unfortunately you need to use the default for GW and RPA                |
|     calculations (for HF NCORE is supported but not extensively tested      |
|     yet).                                                                   |

 POTCAR:  PAW_PBE Kr 07Sep2000
   VRHFIN =Kr: s2p6

   TITEL  = PAW_PBE Kr 07Sep2000
   POMASS =   83.800; ZVAL   =    8.000    mass and valenz
   ENMAX  =  185.331; ENMIN  =  138.998 eV

PAW_PBE Kr 07Sep2000                    :

 POSCAR: Kr4
  positions in direct lattice

 exchange-correlation table for PE
   RHO(1)=    0.500       N(1)  =     2000
   RHO(2)=  100.500       N(2)  =     4000

 ion  position               nearest neighbor table
   1  0.000  0.000  0.000-
   2  0.000  0.500  0.500-
   3  0.500  0.000  0.500-
   4  0.500  0.500  0.000-

  LATTYP: Found a simple cubic cell.
 ALAT       =     6.4293000000

  Lattice vectors:

 A1 = (   6.4293000000,   0.0000000000,   0.0000000000)
 A2 = (   0.0000000000,   6.4293000000,   0.0000000000)
 A3 = (   0.0000000000,   0.0000000000,   6.4293000000)

Analysis of symmetry for initial positions (statically):
 Subroutine PRICEL returns following result:

  LATTYP: Found a face centered cubic cell.
 ALAT       =     6.4293000000

[...]

   4 primitive cells build up your supercell.

 Routine SETGRP: Setting up the symmetry group for a
 simple cubic supercell.

 Subroutine GETGRP returns: Found 48 space group operations
 (whereof 48 operations were pure point group operations)
 out of a pool of 48 trial point group operations.

The static configuration has the point symmetry O_h .

Analysis of symmetry for dynamics (positions and initial velocities):
 Subroutine PRICEL returns following result:

  LATTYP: Found a face centered cubic cell.
 ALAT       =     6.4293000000

  Lattice vectors:

 A1 = (   3.2146500000,  -3.2146500000,   0.0000000000)
 A2 = (   3.2146500000,   0.0000000000,   3.2146500000)
 A3 = (   0.0000000000,  -3.2146500000,   3.2146500000)

   4 primitive cells build up your supercell.

 Routine SETGRP: Setting up the symmetry group for a
 simple cubic supercell.

 Subroutine GETGRP returns: Found 48 space group operations
 (whereof 48 operations were pure point group operations)
 out of a pool of 48 trial point group operations.

The dynamic configuration has the point symmetry O_h .

 Subroutine INISYM returns: Found 48 space group operations
 (whereof 48 operations are pure point group operations),
 and found     4 'primitive' translations

                                     Primitive cell

  volume of cell :      66.4402

  direct lattice vectors                    reciprocal lattice vectors
     3.214650000 -3.214650000  0.000000000     0.155537928 -0.155537928 -0.155537928
     3.214650000  0.000000000  3.214650000     0.155537928  0.155537928  0.155537928
     0.000000000 -3.214650000  3.214650000    -0.155537928 -0.155537928  0.155537928

  length of vectors
     4.546201628  4.546201628  4.546201628     0.269399594  0.269399594  0.269399594

  position of ions in fractional coordinates (direct lattice)
     0.000000000  0.000000000  0.000000000

  ion indices of the primitive-cell ions
   primitive index   ion index
                 1           1

 KPOINTS: Automatic kpoint scheme

Automatic generation of k-mesh.
 Grid dimensions read from file:
 generate k-points for:   12   12   12

 Generating k-lattice:

  Cartesian coordinates                     Fractional coordinates (reciprocal lattice)
     0.012961494 -0.000000000  0.000000000     0.083333333 -0.000000000  0.000000000
     0.000000000  0.012961494  0.000000000     0.000000000  0.083333333  0.000000000
    -0.000000000 -0.000000000  0.012961494    -0.000000000 -0.000000000  0.083333333

  Length of vectors
     0.012961494  0.012961494  0.012961494

  Shift w.r.t. Gamma in fractional coordinates (k-lattice)
     0.000000000  0.000000000  0.000000000

 Subroutine IBZKPT returns following result:

 Found     84 irreducible k-points:

 Following reciprocal coordinates:
            Coordinates               Weight
  0.000000  0.000000  0.000000      1.000000
  0.083333  0.000000  0.000000      6.000000
  0.166667  0.000000  0.000000      6.000000
  0.250000 -0.000000  0.000000      6.000000
  0.333333  0.000000  0.000000      6.000000
  0.416667  0.000000  0.000000      6.000000
  0.500000 -0.000000  0.000000      3.000000
  0.083333  0.083333  0.000000     12.000000
  0.166667  0.083333  0.000000     24.000000
  0.250000  0.083333  0.000000     24.000000
  0.333333  0.083333  0.000000     24.000000
  0.416667  0.083333  0.000000     24.000000
  0.500000  0.083333  0.000000     12.000000
  0.166667  0.166667  0.000000     12.000000
  0.250000  0.166667  0.000000     24.000000
  0.333333  0.166667  0.000000     24.000000
  0.416667  0.166667  0.000000     24.000000
  0.500000  0.166667  0.000000     12.000000
  0.250000  0.250000  0.000000     12.000000
  0.333333  0.250000  0.000000     24.000000
  0.416667  0.250000  0.000000     24.000000
  0.500000  0.250000  0.000000     12.000000
  0.333333  0.333333  0.000000     12.000000
  0.416667  0.333333  0.000000     24.000000
  0.500000  0.333333  0.000000     12.000000
  0.416667  0.416667  0.000000     12.000000
  0.500000  0.416667  0.000000     12.000000
  0.500000  0.500000  0.000000      3.000000
  0.083333  0.083333  0.083333      8.000000
  0.166667  0.083333  0.083333     24.000000
  0.250000  0.083333  0.083333     24.000000
  0.333333  0.083333  0.083333     24.000000
  0.416667  0.083333  0.083333     24.000000
  0.500000  0.083333  0.083333     12.000000
  0.166667  0.166667  0.083333     24.000000
  0.250000  0.166667  0.083333     48.000000
  0.333333  0.166667  0.083333     48.000000
  0.416667  0.166667  0.083333     48.000000
  0.500000  0.166667  0.083333     24.000000
  0.250000  0.250000  0.083333     24.000000
  0.333333  0.250000  0.083333     48.000000
  0.416667  0.250000  0.083333     48.000000
  0.500000  0.250000  0.083333     24.000000
  0.333333  0.333333  0.083333     24.000000
  0.416667  0.333333  0.083333     48.000000
  0.500000  0.333333  0.083333     24.000000
  0.416667  0.416667  0.083333     24.000000
  0.500000  0.416667  0.083333     24.000000
  0.500000  0.500000  0.083333      6.000000
  0.166667  0.166667  0.166667      8.000000
  0.250000  0.166667  0.166667     24.000000
  0.333333  0.166667  0.166667     24.000000
  0.416667  0.166667  0.166667     24.000000
  0.500000  0.166667  0.166667     12.000000
  0.250000  0.250000  0.166667     24.000000
  0.333333  0.250000  0.166667     48.000000
  0.416667  0.250000  0.166667     48.000000
  0.500000  0.250000  0.166667     24.000000
  0.333333  0.333333  0.166667     24.000000
  0.416667  0.333333  0.166667     48.000000
[...]
  0.416667  0.333333  0.250000     48.000000
  0.500000  0.333333  0.250000     24.000000
  0.416667  0.416667  0.250000     24.000000
  0.500000  0.416667  0.250000     24.000000
  0.500000  0.500000  0.250000      6.000000
  0.333333  0.333333  0.333333      8.000000
  0.416667  0.333333  0.333333     24.000000
  0.500000  0.333333  0.333333     12.000000
  0.416667  0.416667  0.333333     24.000000
  0.500000  0.416667  0.333333     24.000000
  0.500000  0.500000  0.333333      6.000000
  0.416667  0.416667  0.416667      8.000000
  0.500000  0.416667  0.416667     12.000000
  0.500000  0.500000  0.416667      6.000000
  0.500000  0.500000  0.500000      1.000000

 Following cartesian coordinates:
            Coordinates               Weight
  0.000000  0.000000  0.000000      1.000000
  0.012961 -0.000000  0.000000      6.000000
  0.025923 -0.000000  0.000000      6.000000
  0.038884 -0.000000  0.000000      6.000000
  0.051846 -0.000000  0.000000      6.000000
  0.064807 -0.000000  0.000000      6.000000
  0.077769 -0.000000  0.000000      3.000000
  0.012961  0.012961  0.000000     12.000000
  0.025923  0.012961  0.000000     24.000000
  0.038884  0.012961  0.000000     24.000000
  0.051846  0.012961  0.000000     24.000000
  0.064807  0.012961  0.000000     24.000000
  0.077769  0.012961  0.000000     12.000000
  0.025923  0.025923  0.000000     12.000000
  0.038884  0.025923  0.000000     24.000000
  0.051846  0.025923  0.000000     24.000000
  0.064807  0.025923  0.000000     24.000000
  0.077769  0.025923  0.000000     12.000000
  0.038884  0.038884  0.000000     12.000000
  0.051846  0.038884  0.000000     24.000000
  0.064807  0.038884  0.000000     24.000000
  0.077769  0.038884  0.000000     12.000000
  0.051846  0.051846  0.000000     12.000000
  0.064807  0.051846  0.000000     24.000000
  0.077769  0.051846  0.000000     12.000000
  0.064807  0.064807  0.000000     12.000000
  0.077769  0.064807  0.000000     12.000000
  0.077769  0.077769  0.000000      3.000000
  0.012961  0.012961  0.012961      8.000000
  0.025923  0.012961  0.012961     24.000000
  0.038884  0.012961  0.012961     24.000000
  0.051846  0.012961  0.012961     24.000000
  0.064807  0.012961  0.012961     24.000000
  0.077769  0.012961  0.012961     12.000000
  0.025923  0.025923  0.012961     24.000000
  0.038884  0.025923  0.012961     48.000000
  0.051846  0.025923  0.012961     48.000000
  0.064807  0.025923  0.012961     48.000000
  0.077769  0.025923  0.012961     24.000000
  0.038884  0.038884  0.012961     24.000000
  0.051846  0.038884  0.012961     48.000000
  0.064807  0.038884  0.012961     48.000000
  0.077769  0.038884  0.012961     24.000000
  0.051846  0.051846  0.012961     24.000000
  0.064807  0.051846  0.012961     48.000000
  0.077769  0.051846  0.012961     24.000000
  0.064807  0.064807  0.012961     24.000000
  0.077769  0.064807  0.012961     24.000000
  0.077769  0.077769  0.012961      6.000000
  0.025923  0.025923  0.025923      8.000000
  0.038884  0.025923  0.025923     24.000000
  0.051846  0.025923  0.025923     24.000000
  0.064807  0.025923  0.025923     24.000000
  0.077769  0.025923  0.025923     12.000000
  0.038884  0.038884  0.025923     24.000000
  0.051846  0.038884  0.025923     48.000000
[...]
   0.41666667  0.41666667  0.08333333       0.014
   0.50000000  0.41666667  0.08333333       0.014
   0.50000000  0.50000000  0.08333333       0.003
   0.16666667  0.16666667  0.16666667       0.005
   0.25000000  0.16666667  0.16666667       0.014
   0.33333333  0.16666667  0.16666667       0.014
   0.41666667  0.16666667  0.16666667       0.014
   0.50000000  0.16666667  0.16666667       0.007
   0.25000000  0.25000000  0.16666667       0.014
   0.33333333  0.25000000  0.16666667       0.028
   0.41666667  0.25000000  0.16666667       0.028
   0.50000000  0.25000000  0.16666667       0.014
   0.33333333  0.33333333  0.16666667       0.014
   0.41666667  0.33333333  0.16666667       0.028
[...]
   0.41666667  0.33333333  0.25000000       0.028
   0.50000000  0.33333333  0.25000000       0.014
   0.41666667  0.41666667  0.25000000       0.014
   0.50000000  0.41666667  0.25000000       0.014
   0.50000000  0.50000000  0.25000000       0.003
   0.33333333  0.33333333  0.33333333       0.005
   0.41666667  0.33333333  0.33333333       0.014
   0.50000000  0.33333333  0.33333333       0.007
   0.41666667  0.41666667  0.33333333       0.014
   0.50000000  0.41666667  0.33333333       0.014
   0.50000000  0.50000000  0.33333333       0.003
   0.41666667  0.41666667  0.41666667       0.005
   0.50000000  0.41666667  0.41666667       0.007
   0.50000000  0.50000000  0.41666667       0.003
   0.50000000  0.50000000  0.50000000       0.001

 position of ions in fractional coordinates (direct lattice)
   0.00000000  0.00000000  0.00000000
   0.00000000  0.50000000  0.50000000
   0.50000000  0.00000000  0.50000000
   0.50000000  0.50000000  0.00000000

 position of ions in cartesian coordinates  (Angst):
   0.00000000  0.00000000  0.00000000
   0.00000000  3.21465000  3.21465000
   3.21465000  0.00000000  3.21465000
   3.21465000  3.21465000  0.00000000

 k-point     1 :   0.0000 0.0000 0.0000  plane waves:    2301
 k-point     2 :   0.0833 0.0000 0.0000  plane waves:    2269
 k-point     3 :   0.1667 0.0000 0.0000  plane waves:    2244
 k-point     4 :   0.2500-0.0000 0.0000  plane waves:    2268
 k-point     5 :   0.3333 0.0000 0.0000  plane waves:    2260
 k-point     6 :   0.4167 0.0000 0.0000  plane waves:    2264
 k-point     7 :   0.5000-0.0000 0.0000  plane waves:    2240
 k-point     8 :   0.0833 0.0833 0.0000  plane waves:    2251
 k-point     9 :   0.1667 0.0833 0.0000  plane waves:    2251
 k-point    10 :   0.2500 0.0833 0.0000  plane waves:    2255
 k-point    11 :   0.3333 0.0833 0.0000  plane waves:    2254
 k-point    12 :   0.4167 0.0833 0.0000  plane waves:    2260
 k-point    13 :   0.5000 0.0833 0.0000  plane waves:    2244
 k-point    14 :   0.1667 0.1667 0.0000  plane waves:    2261
 k-point    15 :   0.2500 0.1667 0.0000  plane waves:    2253
 k-point    16 :   0.3333 0.1667 0.0000  plane waves:    2260
 k-point    17 :   0.4167 0.1667 0.0000  plane waves:    2261
 k-point    18 :   0.5000 0.1667 0.0000  plane waves:    2250
 k-point    19 :   0.2500 0.2500 0.0000  plane waves:    2266
 k-point    20 :   0.3333 0.2500 0.0000  plane waves:    2259
 k-point    21 :   0.4167 0.2500 0.0000  plane waves:    2249
 k-point    22 :   0.5000 0.2500 0.0000  plane waves:    2244
 k-point    23 :   0.3333 0.3333 0.0000  plane waves:    2254
 k-point    24 :   0.4167 0.3333 0.0000  plane waves:    2248
 k-point    25 :   0.5000 0.3333 0.0000  plane waves:    2246
 k-point    26 :   0.4167 0.4167 0.0000  plane waves:    2244
 k-point    27 :   0.5000 0.4167 0.0000  plane waves:    2236
 k-point    28 :   0.5000 0.5000 0.0000  plane waves:    2216
 k-point    29 :   0.0833 0.0833 0.0833  plane waves:    2241
 k-point    30 :   0.1667 0.0833 0.0833  plane waves:    2257
 k-point    31 :   0.2500 0.0833 0.0833  plane waves:    2255
 k-point    32 :   0.3333 0.0833 0.0833  plane waves:    2249
 k-point    33 :   0.4167 0.0833 0.0833  plane waves:    2254
 k-point    34 :   0.5000 0.0833 0.0833  plane waves:    2260
 k-point    35 :   0.1667 0.1667 0.0833  plane waves:    2257
 k-point    36 :   0.2500 0.1667 0.0833  plane waves:    2260
 k-point    37 :   0.3333 0.1667 0.0833  plane waves:    2257
 k-point    38 :   0.4167 0.1667 0.0833  plane waves:    2254
 k-point    39 :   0.5000 0.1667 0.0833  plane waves:    2250
 k-point    40 :   0.2500 0.2500 0.0833  plane waves:    2258
 k-point    41 :   0.3333 0.2500 0.0833  plane waves:    2254
 k-point    42 :   0.4167 0.2500 0.0833  plane waves:    2247
 k-point    43 :   0.5000 0.2500 0.0833  plane waves:    2252
 k-point    44 :   0.3333 0.3333 0.0833  plane waves:    2252
 k-point    45 :   0.4167 0.3333 0.0833  plane waves:    2253
 k-point    46 :   0.5000 0.3333 0.0833  plane waves:    2268
 k-point    47 :   0.4167 0.4167 0.0833  plane waves:    2254
 k-point    48 :   0.5000 0.4167 0.0833  plane waves:    2252
 k-point    49 :   0.5000 0.5000 0.0833  plane waves:    2252
 k-point    50 :   0.1667 0.1667 0.1667  plane waves:    2280
 k-point    51 :   0.2500 0.1667 0.1667  plane waves:    2253
 k-point    52 :   0.3333 0.1667 0.1667  plane waves:    2250
 k-point    53 :   0.4167 0.1667 0.1667  plane waves:    2242
 k-point    54 :   0.5000 0.1667 0.1667  plane waves:    2236
 k-point    55 :   0.2500 0.2500 0.1667  plane waves:    2254
 k-point    56 :   0.3333 0.2500 0.1667  plane waves:    2257
 k-point    57 :   0.4167 0.2500 0.1667  plane waves:    2254
 k-point    58 :   0.5000 0.2500 0.1667  plane waves:    2256
 k-point    59 :   0.3333 0.3333 0.1667  plane waves:    2248
 k-point    60 :   0.4167 0.3333 0.1667  plane waves:    2263
[...]
 k-point    70 :   0.4167 0.3333 0.2500  plane waves:    2268
 k-point    71 :   0.5000 0.3333 0.2500  plane waves:    2256
 k-point    72 :   0.4167 0.4167 0.2500  plane waves:    2269
 k-point    73 :   0.5000 0.4167 0.2500  plane waves:    2274
 k-point    74 :   0.5000 0.5000 0.2500  plane waves:    2284
 k-point    75 :   0.3333 0.3333 0.3333  plane waves:    2266
 k-point    76 :   0.4167 0.3333 0.3333  plane waves:    2263
 k-point    77 :   0.5000 0.3333 0.3333  plane waves:    2274
 k-point    78 :   0.4167 0.4167 0.3333  plane waves:    2277
 k-point    79 :   0.5000 0.4167 0.3333  plane waves:    2280
 k-point    80 :   0.5000 0.5000 0.3333  plane waves:    2272
 k-point    81 :   0.4167 0.4167 0.4167  plane waves:    2269
 k-point    82 :   0.5000 0.4167 0.4167  plane waves:    2272
 k-point    83 :   0.5000 0.5000 0.4167  plane waves:    2292
 k-point    84 :   0.5000 0.5000 0.5000  plane waves:    2272

 maximum and minimum number of plane-waves per node :      2301     2216

 maximum number of plane-waves:      2301
 maximum index in each direction:
   IXMAX=    8   IYMAX=    8   IZMAX=    8
   IXMIN=   -8   IYMIN=   -8   IZMIN=   -8

 serial   3D FFT for wavefunctions
 parallel 3D FFT for charge:
    minimum data exchange during FFTs selected (reduces bandwidth)

 Broyden mixing: mesh for mixing (old mesh)
   NGX = 17   NGY = 17   NGZ = 17
  (NGX  = 48   NGY  = 48   NGZ  = 48)
  gives a total of   4913 points

 charge density for first step will be calculated from the start-wavefunctions

 Maximum index for augmentation-charges          169 (set IRDMAX)

 initial charge from wavefunction
 First call to EWALD:  gamma=   0.276
 Maximum number of real-space cells 3x 3x 3
 Maximum number of reciprocal cells 3x 3x 3

--------------------------------------- Ionic step        1  -------------------------------------------

--------------------------------------- Iteration      1(   1)  ---------------------------------------

 eigenvalue-minimisations  :  9744
 total energy-change (2. order) :-0.1887731E+00  (-0.3133912E-07)
 number of electron      31.9999238 magnetization
 augmentation part       -4.6725600 magnetization

 Broyden mixing:
  rms(total) = 0.26672E-04    rms(broyden)= 0.26639E-04
  rms(prec ) = 0.44554E-04
  weight for this iteration     100.00

 Free energy of the ion-electron system (eV)
  alpha Z        PSCENC =        46.25721931
  Ewald energy   TEWEN  =     -1314.40327266
  -Hartree energ DENC   =      -518.96006308
  -exchange      EXHF   =         0.00000000
  -V(xc)+E(xc)   XCENC  =        82.09039921
  PAW double counting   =      1640.71211470    -1642.11040126
  entropy T*S    EENTRO =        -0.00000000
  eigenvalues    EBANDS =      -320.64121696
  atomic energy  EATOM  =      2026.86644763
  Solvation  Ediel_sol  =         0.00000000
  free energy    TOTEN  =        -0.18877311 eV

  energy without entropy =       -0.18877310  energy(sigma->0) =       -0.18877310

--------------------------------------- Iteration      1(   2)  ---------------------------------------

 eigenvalue-minimisations  :  7584
 total energy-change (2. order) :-0.7978247E-07  (-0.7504338E-09)
 number of electron      31.9999238 magnetization
 augmentation part       -4.6725600 magnetization

 Free energy of the ion-electron system (eV)
  alpha Z        PSCENC =        46.25721931
  Ewald energy   TEWEN  =     -1314.40327266
  -Hartree energ DENC   =      -518.96087842
  -exchange      EXHF   =         0.00000000
  -V(xc)+E(xc)   XCENC  =        82.09042944
  PAW double counting   =      1640.72672723    -1642.12512468
  entropy T*S    EENTRO =        -0.00000000
  eigenvalues    EBANDS =      -320.64032104
  atomic energy  EATOM  =      2026.86644763
  Solvation  Ediel_sol  =         0.00000000
  free energy    TOTEN  =        -0.18877318 eV

  energy without entropy =       -0.18877318  energy(sigma->0) =       -0.18877318

 average (electrostatic) potential at core
  the test charge radii are     0.9700
  (the norm of the test charge is              1.0000)
       1 -83.6561       2 -83.6561       3 -83.6561       4 -83.6561

 E-fermi :  -6.1014     XC(G=0):  -5.3797     alpha+bet : -2.6691

 val. band max:       -6.3169193515   @ k =   0.0000   0.0000   0.0000
 cond. band min:       0.8491498941   @ k =   0.0000   0.0000   0.0000
 fundamental gap:      7.1660692455
 Fermi energy:        -6.1014465620

 k-point     1 :       0.0000    0.0000    0.0000
  band No.  band energies     occupation
      1     -20.4153      2.00000
      2     -20.3559      2.00000
      3     -20.3559      2.00000
      4     -20.3559      2.00000
      5      -6.8767      2.00000
      6      -6.8767      2.00000
      7      -6.8767      2.00000
      8      -6.5236      2.00000
      9      -6.5236      2.00000
     10      -6.5236      2.00000
     11      -6.5236      2.00000
     12      -6.5236      2.00000
     13      -6.5236      2.00000
     14      -6.3169      2.00000
     15      -6.3169      2.00000
     16      -6.3169      2.00000
     17       0.8491      0.00000
     18       3.3732      0.00000
     19       3.3732      0.00000
     20       3.3732      0.00000
     21       4.6382      0.00000
     22       4.6382      0.00000
     23       4.6382      0.00000
     24       5.7829      0.00000
     25       5.7829      0.00000
     26       5.7829      0.00000
     27       6.9205      0.00000
     28       6.9205      0.00000
     29       6.9205      0.00000
     30       8.8070      0.00000
     31       8.8070      0.00000
     32       9.1027      0.00000
     33       9.1027      0.00000
     34       9.1027      0.00000
     35       9.1027      0.00000
     36       9.1027      0.00000
     37       9.1027      0.00000
     38       9.8769      0.00000
     39      10.2135      0.00000
     40      10.2135      0.00000
     41      10.2135      0.00000
     42      10.3201      0.00000
     43      10.3201      0.00000
     44      10.3201      0.00000
     45      10.8131      0.00000
     46      10.8131      0.00000
     47      10.8131      0.00000
     48      10.8131      0.00000

[...]

 k-point    84 :       0.5000    0.5000    0.5000
  band No.  band energies     occupation
      1     -20.3704      2.00000
      2     -20.3704      2.00000
      3     -20.3704      2.00000
      4     -20.3704      2.00000
      5      -6.9274      2.00000
      6      -6.9274      2.00000
      7      -6.9274      2.00000
      8      -6.9274      2.00000
      9      -6.3892      2.00000
     10      -6.3892      2.00000
     11      -6.3892      2.00000
     12      -6.3892      2.00000
     13      -6.3892      2.00000
     14      -6.3892      2.00000
     15      -6.3892      2.00000
     16      -6.3892      2.00000
     17       3.1843      0.00000
     18       3.1843      0.00000
     19       3.1843      0.00000
     20       3.1843      0.00000
     21       4.7066      0.00000
     22       4.7066      0.00000
     23       4.7066      0.00000
     24       4.7066      0.00000
     25       6.6044      0.00000
     26       6.6044      0.00000
     27       6.6044      0.00000
     28       6.6044      0.00000
     29       6.6044      0.00000
     30       6.6044      0.00000
     31       6.6044      0.00000
     32       6.6044      0.00000
     33       9.5007      0.00000
     34       9.5007      0.00000
     35       9.5007      0.00000
     36       9.5007      0.00000
     37      10.2939      0.00000
     38      10.2939      0.00000
     39      10.2939      0.00000
     40      10.2939      0.00000
     41      10.2939      0.00000
     42      10.2939      0.00000
     43      10.2939      0.00000
     44      10.2939      0.00000
     45      10.5624      0.00000
     46      10.5624      0.00000
     47      10.5624      0.00000
     48      10.5624      0.00000

 soft charge-density along one line, spin component           1
         0         1         2         3         4         5         6         7         8         9
 total charge-density along one line

------------------------ aborting loop because EDIFF is reached ----------------------------------------

  FORCE on cell =-STRESS in cart. coord.  units (eV):
  Direction    XX          YY          ZZ          XY          YZ          ZX
  Alpha Z    46.25722    46.25722    46.25722
  Ewald    -438.13462  -438.13462  -438.13462    -0.00000     0.00000     0.00000
  Hartree   172.98724   172.98724   172.98724    -0.00000    -0.00000    -0.00000
  E(xc)    -116.62269  -116.62269  -116.62269     0.00000    -0.00000    -0.00000
  Local    -290.34382  -290.34382  -290.34382     0.00000     0.00000    -0.00000
  n-local   239.21573   239.32697   239.37514    -0.03080    -0.02638    -0.01867
  augment   -94.02092   -94.02092   -94.02092     0.00000     0.00000     0.00000
  Kinetic   479.95515   480.60934   480.90649    -0.17239    -0.16752    -0.10962
  Fock        0.00000     0.00000     0.00000     0.00000     0.00000     0.00000
  Total      -0.08133    -0.08133    -0.08133    -0.00000     0.00000    -0.00000
  in kB      -0.49032    -0.49032    -0.49032    -0.00000     0.00000    -0.00000

 VOLUME and BASIS-vectors are now :
  energy-cutoff  :      240.93
  volume of cell :      265.76
      direct lattice vectors                 reciprocal lattice vectors
     6.429300000  0.000000000  0.000000000     0.155537928 -0.000000000  0.000000000
     0.000000000  6.429300000  0.000000000     0.000000000  0.155537928  0.000000000
     0.000000000  0.000000000  6.429300000    -0.000000000 -0.000000000  0.155537928

  length of vectors
     6.429300000  6.429300000  6.429300000     0.155537928  0.155537928  0.155537928

 FORCES acting on ions
    electron-ion (+dipol)            ewald-force                    non-local-force                 convergence-correction
   0.276E-14 0.866E-15 -.577E-15   -.511E-15 0.944E-15 0.361E-15   0.315E-25 -.103E-26 0.218E-25   0.285E-14 -.488E-15 0.636E-14
   0.272E-14 -.485E-14 -.737E-14   -.855E-15 0.120E-14 0.736E-15   -.491E-25 0.149E-25 -.710E-26   0.473E-14 -.174E-14 0.509E-14
   -.483E-14 0.276E-15 -.131E-11   0.592E-15 -.785E-15 0.711E-15   0.637E-25 -.313E-25 -.138E-25   -.146E-15 0.361E-14 0.715E-14
   -.666E-14 -.969E-12 -.113E-11   0.248E-15 -.525E-15 -.268E-14   -.200E-25 -.427E-25 -.580E-25   0.202E-15 0.446E-14 0.498E-14
   -.602E-14 -.972E-12 -.244E-11   -.526E-15 0.839E-15 -.871E-15   0.261E-25 -.601E-25 -.570E-25   0.764E-14 0.584E-14 0.236E-13

 POSITION                                       TOTAL-FORCE (eV/Angst)
      0.00000      0.00000      0.00000        -0.000000     -0.000000      0.000000
      0.00000      3.21465      3.21465         0.000000      0.000000     -0.000000
      3.21465      0.00000      3.21465         0.000000     -0.000000     -0.000000
      3.21465      3.21465      0.00000         0.000000     -0.000000     -0.000000
    total drift:                                0.000000     -0.000000     -0.000000

  FREE ENERGIE OF THE ION-ELECTRON SYSTEM (eV)
  free  energy   TOTEN  =        -0.18877318 eV

  energy  without entropy=       -0.18877318  energy(sigma->0) =       -0.18877318

 writing wavefunctions