 vasp.6.4.3 19Mar24 (build Jun 26 2024 13:02:28) complex

 executed on             LinuxIFC date 2025.08.08  18:40:13

 INCAR:
   ENCUT = 346.6086
   IBRION = -1
   ISMEAR = 0
   ISYM = 2
   LCHARG = True
   LWAVE = True
   SIGMA = 0.05
   SYSTEM = Ca

 POTCAR:  PAW_PBE Ca_sv 06Sep2000
|           W    W    AA    RRRRR   N    N  II  N    N   GGGG   !!!           |
|           W    W   A  A   R    R  NN   N  II  NN   N  G    G  !!!           |
|           W    W  A    A  R    R  N N  N  II  N N  N  G       !!!           |
|           W WW W  AAAAAA  RRRRR   N  N N  II  N  N N  G  GGG   !            |
|           WW  WW  A    A  R   R   N   NN  II  N   NN  G    G                |
|           W    W  A    A  R    R  N    N  II  N    N   GGGG   !!!           |
|     For optimal performance we recommend to set                             |
|       NCORE = 2 up to number-of-cores-per-socket                            |
|     This setting can greatly improve the performance of VASP for DFT.       |
|     The default, NCORE=1 might be grossly inefficient on modern             |
|     multi-core architectures or massively parallel machines. Do your        |
|     Unfortunately you need to use the default for GW and RPA                |
|     calculations (for HF NCORE is supported but not extensively tested      |
|     yet).                                                                   |

 POTCAR:  PAW_PBE Ca_sv 06Sep2000
   VRHFIN =Ca: 3s3p4s

   TITEL  = PAW_PBE Ca_sv 06Sep2000
   POMASS =   40.078; ZVAL   =   10.000    mass and valenz
   ENMAX  =  266.622; ENMIN  =  199.967 eV

PAW_PBE Ca_sv 06Sep2000                 :

 POSCAR: Ca4
  positions in direct lattice

 exchange-correlation table for PE
   RHO(1)=    0.500       N(1)  =     2000
   RHO(2)=  100.500       N(2)  =     4000

 ion  position               nearest neighbor table
   1  0.000  0.000  0.000-
   2  0.000  0.500  0.500-
   3  0.500  0.000  0.500-
   4  0.500  0.500  0.000-

  LATTYP: Found a simple cubic cell.
 ALAT       =     5.5250700000

  Lattice vectors:

 A1 = (   5.5250700000,   0.0000000000,   0.0000000000)
 A2 = (   0.0000000000,   5.5250700000,   0.0000000000)
 A3 = (   0.0000000000,   0.0000000000,   5.5250700000)

Analysis of symmetry for initial positions (statically):
 Subroutine PRICEL returns following result:

  LATTYP: Found a face centered cubic cell.
 ALAT       =     5.5250700000

[...]

   4 primitive cells build up your supercell.

 Routine SETGRP: Setting up the symmetry group for a
 simple cubic supercell.

 Subroutine GETGRP returns: Found 48 space group operations
 (whereof 48 operations were pure point group operations)
 out of a pool of 48 trial point group operations.

The static configuration has the point symmetry O_h .

Analysis of symmetry for dynamics (positions and initial velocities):
 Subroutine PRICEL returns following result:

  LATTYP: Found a face centered cubic cell.
 ALAT       =     5.5250700000

  Lattice vectors:

 A1 = (   2.7625350000,  -2.7625350000,   0.0000000000)
 A2 = (   2.7625350000,   0.0000000000,   2.7625350000)
 A3 = (   0.0000000000,  -2.7625350000,   2.7625350000)

   4 primitive cells build up your supercell.

 Routine SETGRP: Setting up the symmetry group for a
 simple cubic supercell.

 Subroutine GETGRP returns: Found 48 space group operations
 (whereof 48 operations were pure point group operations)
 out of a pool of 48 trial point group operations.

The dynamic configuration has the point symmetry O_h .

 Subroutine INISYM returns: Found 48 space group operations
 (whereof 48 operations are pure point group operations),
 and found     4 'primitive' translations

                                     Primitive cell

  volume of cell :      42.1651

  direct lattice vectors                    reciprocal lattice vectors
     2.762535000 -2.762535000  0.000000000     0.180993182 -0.180993182 -0.180993182
     2.762535000  0.000000000  2.762535000     0.180993182  0.180993182  0.180993182
     0.000000000 -2.762535000  2.762535000    -0.180993182 -0.180993182  0.180993182

  length of vectors
     3.906814464  3.906814464  3.906814464     0.313489387  0.313489387  0.313489387

  position of ions in fractional coordinates (direct lattice)
     0.000000000  0.000000000  0.000000000

  ion indices of the primitive-cell ions
   primitive index   ion index
                 1           1

 KPOINTS: Automatic kpoint scheme

Automatic generation of k-mesh.
 Grid dimensions read from file:
 generate k-points for:   12   12   12

 Generating k-lattice:

  Cartesian coordinates                     Fractional coordinates (reciprocal lattice)
     0.015082765 -0.000000000  0.000000000     0.083333333 -0.000000000  0.000000000
     0.000000000  0.015082765  0.000000000     0.000000000  0.083333333  0.000000000
    -0.000000000 -0.000000000  0.015082765    -0.000000000 -0.000000000  0.083333333

  Length of vectors
     0.015082765  0.015082765  0.015082765

  Shift w.r.t. Gamma in fractional coordinates (k-lattice)
     0.000000000  0.000000000  0.000000000

 Subroutine IBZKPT returns following result:

 Found     84 irreducible k-points:

 Following reciprocal coordinates:
            Coordinates               Weight
  0.000000  0.000000  0.000000      1.000000
  0.083333  0.000000  0.000000      6.000000
  0.166667  0.000000  0.000000      6.000000
  0.250000  0.000000  0.000000      6.000000
  0.333333  0.000000  0.000000      6.000000
  0.416667  0.000000  0.000000      6.000000
  0.500000  0.000000  0.000000      3.000000
  0.083333  0.083333  0.000000     12.000000
  0.166667  0.083333  0.000000     24.000000
  0.250000  0.083333  0.000000     24.000000
  0.333333  0.083333  0.000000     24.000000
  0.416667  0.083333  0.000000     24.000000
  0.500000  0.083333  0.000000     12.000000
  0.166667  0.166667  0.000000     12.000000
  0.250000  0.166667  0.000000     24.000000
  0.333333  0.166667  0.000000     24.000000
  0.416667  0.166667  0.000000     24.000000
  0.500000  0.166667  0.000000     12.000000
  0.250000  0.250000  0.000000     12.000000
  0.333333  0.250000  0.000000     24.000000
  0.416667  0.250000  0.000000     24.000000
  0.500000  0.250000  0.000000     12.000000
  0.333333  0.333333  0.000000     12.000000
  0.416667  0.333333  0.000000     24.000000
  0.500000  0.333333  0.000000     12.000000
  0.416667  0.416667  0.000000     12.000000
  0.500000  0.416667  0.000000     12.000000
  0.500000  0.500000  0.000000      3.000000
  0.083333  0.083333  0.083333      8.000000
  0.166667  0.083333  0.083333     24.000000
  0.250000  0.083333  0.083333     24.000000
  0.333333  0.083333  0.083333     24.000000
  0.416667  0.083333  0.083333     24.000000
  0.500000  0.083333  0.083333     12.000000
  0.166667  0.166667  0.083333     24.000000
  0.250000  0.166667  0.083333     48.000000
  0.333333  0.166667  0.083333     48.000000
  0.416667  0.166667  0.083333     48.000000
  0.500000  0.166667  0.083333     24.000000
  0.250000  0.250000  0.083333     24.000000
  0.333333  0.250000  0.083333     48.000000
  0.416667  0.250000  0.083333     48.000000
  0.500000  0.250000  0.083333     24.000000
  0.333333  0.333333  0.083333     24.000000
  0.416667  0.333333  0.083333     48.000000
  0.500000  0.333333  0.083333     24.000000
  0.416667  0.416667  0.083333     24.000000
  0.500000  0.416667  0.083333     24.000000
  0.500000  0.500000  0.083333      6.000000
  0.166667  0.166667  0.166667      8.000000
  0.250000  0.166667  0.166667     24.000000
  0.333333  0.166667  0.166667     24.000000
  0.416667  0.166667  0.166667     24.000000
  0.500000  0.166667  0.166667     12.000000
  0.250000  0.250000  0.166667     24.000000
  0.333333  0.250000  0.166667     48.000000
  0.416667  0.250000  0.166667     48.000000
  0.500000  0.250000  0.166667     24.000000
  0.333333  0.333333  0.166667     24.000000
  0.416667  0.333333  0.166667     48.000000
[...]
  0.416667  0.333333  0.250000     48.000000
  0.500000  0.333333  0.250000     24.000000
  0.416667  0.416667  0.250000     24.000000
  0.500000  0.416667  0.250000     24.000000
  0.500000  0.500000  0.250000      6.000000
  0.333333  0.333333  0.333333      8.000000
  0.416667  0.333333  0.333333     24.000000
  0.500000  0.333333  0.333333     12.000000
  0.416667  0.416667  0.333333     24.000000
  0.500000  0.416667  0.333333     24.000000
  0.500000  0.500000  0.333333      6.000000
  0.416667  0.416667  0.416667      8.000000
  0.500000  0.416667  0.416667     12.000000
  0.500000  0.500000  0.416667      6.000000
  0.500000  0.500000  0.500000      1.000000

 Following cartesian coordinates:
            Coordinates               Weight
  0.000000  0.000000  0.000000      1.000000
  0.015083 -0.000000  0.000000      6.000000
  0.030166 -0.000000  0.000000      6.000000
  0.045248 -0.000000  0.000000      6.000000
  0.060331 -0.000000  0.000000      6.000000
  0.075414 -0.000000  0.000000      6.000000
  0.090497 -0.000000  0.000000      3.000000
  0.015083  0.015083  0.000000     12.000000
  0.030166  0.015083  0.000000     24.000000
  0.045248  0.015083  0.000000     24.000000
  0.060331  0.015083  0.000000     24.000000
  0.075414  0.015083  0.000000     24.000000
  0.090497  0.015083  0.000000     12.000000
  0.030166  0.030166  0.000000     12.000000
  0.045248  0.030166  0.000000     24.000000
  0.060331  0.030166  0.000000     24.000000
  0.075414  0.030166  0.000000     24.000000
  0.090497  0.030166  0.000000     12.000000
  0.045248  0.045248  0.000000     12.000000
  0.060331  0.045248  0.000000     24.000000
  0.075414  0.045248  0.000000     24.000000
  0.090497  0.045248  0.000000     12.000000
  0.060331  0.060331  0.000000     12.000000
  0.075414  0.060331  0.000000     24.000000
  0.090497  0.060331  0.000000     12.000000
  0.075414  0.075414  0.000000     12.000000
  0.090497  0.075414  0.000000     12.000000
  0.090497  0.090497  0.000000      3.000000
  0.015083  0.015083  0.015083      8.000000
  0.030166  0.015083  0.015083     24.000000
  0.045248  0.015083  0.015083     24.000000
  0.060331  0.015083  0.015083     24.000000
  0.075414  0.015083  0.015083     24.000000
  0.090497  0.015083  0.015083     12.000000
  0.030166  0.030166  0.015083     24.000000
  0.045248  0.030166  0.015083     48.000000
  0.060331  0.030166  0.015083     48.000000
  0.075414  0.030166  0.015083     48.000000
  0.090497  0.030166  0.015083     24.000000
  0.045248  0.045248  0.015083     24.000000
  0.060331  0.045248  0.015083     48.000000
  0.075414  0.045248  0.015083     48.000000
  0.090497  0.045248  0.015083     24.000000
  0.060331  0.060331  0.015083     24.000000
  0.075414  0.060331  0.015083     48.000000
  0.090497  0.060331  0.015083     24.000000
  0.075414  0.075414  0.015083     24.000000
  0.090497  0.075414  0.015083     24.000000
  0.090497  0.090497  0.015083      6.000000
  0.030166  0.030166  0.030166      8.000000
  0.045248  0.030166  0.030166     24.000000
  0.060331  0.030166  0.030166     24.000000
  0.075414  0.030166  0.030166     24.000000
  0.090497  0.030166  0.030166     12.000000
  0.045248  0.045248  0.030166     24.000000
[...]
   0.41666667  0.41666667  0.08333333       0.014
   0.50000000  0.41666667  0.08333333       0.014
   0.50000000  0.50000000  0.08333333       0.003
   0.16666667  0.16666667  0.16666667       0.005
   0.25000000  0.16666667  0.16666667       0.014
   0.33333333  0.16666667  0.16666667       0.014
   0.41666667  0.16666667  0.16666667       0.014
   0.50000000  0.16666667  0.16666667       0.007
   0.25000000  0.25000000  0.16666667       0.014
   0.33333333  0.25000000  0.16666667       0.028
   0.41666667  0.25000000  0.16666667       0.028
   0.50000000  0.25000000  0.16666667       0.014
   0.33333333  0.33333333  0.16666667       0.014
   0.41666667  0.33333333  0.16666667       0.028
[...]
   0.41666667  0.33333333  0.25000000       0.028
   0.50000000  0.33333333  0.25000000       0.014
   0.41666667  0.41666667  0.25000000       0.014
   0.50000000  0.41666667  0.25000000       0.014
   0.50000000  0.50000000  0.25000000       0.003
   0.33333333  0.33333333  0.33333333       0.005
   0.41666667  0.33333333  0.33333333       0.014
   0.50000000  0.33333333  0.33333333       0.007
   0.41666667  0.41666667  0.33333333       0.014
   0.50000000  0.41666667  0.33333333       0.014
   0.50000000  0.50000000  0.33333333       0.003
   0.41666667  0.41666667  0.41666667       0.005
   0.50000000  0.41666667  0.41666667       0.007
   0.50000000  0.50000000  0.41666667       0.003
   0.50000000  0.50000000  0.50000000       0.001

 position of ions in fractional coordinates (direct lattice)
   0.00000000  0.00000000  0.00000000
   0.00000000  0.50000000  0.50000000
   0.50000000  0.00000000  0.50000000
   0.50000000  0.50000000  0.00000000

 position of ions in cartesian coordinates  (Angst):
   0.00000000  0.00000000  0.00000000
   0.00000000  2.76253500  2.76253500
   2.76253500  0.00000000  2.76253500
   2.76253500  2.76253500  0.00000000

 k-point     1 :   0.0000 0.0000 0.0000  plane waves:    2517
 k-point     2 :   0.0833 0.0000 0.0000  plane waves:    2493
 k-point     3 :   0.1667 0.0000 0.0000  plane waves:    2473
 k-point     4 :   0.2500 0.0000 0.0000  plane waves:    2485
 k-point     5 :   0.3333 0.0000 0.0000  plane waves:    2457
 k-point     6 :   0.4167 0.0000 0.0000  plane waves:    2464
 k-point     7 :   0.5000 0.0000 0.0000  plane waves:    2496
 k-point     8 :   0.0833 0.0833 0.0000  plane waves:    2482
 k-point     9 :   0.1667 0.0833 0.0000  plane waves:    2473
 k-point    10 :   0.2500 0.0833 0.0000  plane waves:    2480
 k-point    11 :   0.3333 0.0833 0.0000  plane waves:    2478
 k-point    12 :   0.4167 0.0833 0.0000  plane waves:    2465
 k-point    13 :   0.5000 0.0833 0.0000  plane waves:    2464
 k-point    14 :   0.1667 0.1667 0.0000  plane waves:    2464
 k-point    15 :   0.2500 0.1667 0.0000  plane waves:    2474
 k-point    16 :   0.3333 0.1667 0.0000  plane waves:    2467
 k-point    17 :   0.4167 0.1667 0.0000  plane waves:    2471
 k-point    18 :   0.5000 0.1667 0.0000  plane waves:    2484
 k-point    19 :   0.2500 0.2500 0.0000  plane waves:    2468
 k-point    20 :   0.3333 0.2500 0.0000  plane waves:    2476
 k-point    21 :   0.4167 0.2500 0.0000  plane waves:    2479
 k-point    22 :   0.5000 0.2500 0.0000  plane waves:    2494
 k-point    23 :   0.3333 0.3333 0.0000  plane waves:    2478
 k-point    24 :   0.4167 0.3333 0.0000  plane waves:    2479
 k-point    25 :   0.5000 0.3333 0.0000  plane waves:    2476
 k-point    26 :   0.4167 0.4167 0.0000  plane waves:    2468
 k-point    27 :   0.5000 0.4167 0.0000  plane waves:    2468
 k-point    28 :   0.5000 0.5000 0.0000  plane waves:    2464
 k-point    29 :   0.0833 0.0833 0.0833  plane waves:    2472
 k-point    30 :   0.1667 0.0833 0.0833  plane waves:    2470
 k-point    31 :   0.2500 0.0833 0.0833  plane waves:    2473
 k-point    32 :   0.3333 0.0833 0.0833  plane waves:    2480
 k-point    33 :   0.4167 0.0833 0.0833  plane waves:    2467
 k-point    34 :   0.5000 0.0833 0.0833  plane waves:    2476
 k-point    35 :   0.1667 0.1667 0.0833  plane waves:    2474
 k-point    36 :   0.2500 0.1667 0.0833  plane waves:    2475
 k-point    37 :   0.3333 0.1667 0.0833  plane waves:    2472
 k-point    38 :   0.4167 0.1667 0.0833  plane waves:    2469
 k-point    39 :   0.5000 0.1667 0.0833  plane waves:    2478
 k-point    40 :   0.2500 0.2500 0.0833  plane waves:    2478
 k-point    41 :   0.3333 0.2500 0.0833  plane waves:    2466
 k-point    42 :   0.4167 0.2500 0.0833  plane waves:    2474
 k-point    43 :   0.5000 0.2500 0.0833  plane waves:    2480
 k-point    44 :   0.3333 0.3333 0.0833  plane waves:    2474
 k-point    45 :   0.4167 0.3333 0.0833  plane waves:    2478
 k-point    46 :   0.5000 0.3333 0.0833  plane waves:    2466
 k-point    47 :   0.4167 0.4167 0.0833  plane waves:    2469
 k-point    48 :   0.5000 0.4167 0.0833  plane waves:    2470
 k-point    49 :   0.5000 0.5000 0.0833  plane waves:    2480
 k-point    50 :   0.1667 0.1667 0.1667  plane waves:    2479
 k-point    51 :   0.2500 0.1667 0.1667  plane waves:    2477
 k-point    52 :   0.3333 0.1667 0.1667  plane waves:    2482
 k-point    53 :   0.4167 0.1667 0.1667  plane waves:    2471
 k-point    54 :   0.5000 0.1667 0.1667  plane waves:    2490
 k-point    55 :   0.2500 0.2500 0.1667  plane waves:    2476
 k-point    56 :   0.3333 0.2500 0.1667  plane waves:    2476
 k-point    57 :   0.4167 0.2500 0.1667  plane waves:    2478
 k-point    58 :   0.5000 0.2500 0.1667  plane waves:    2478
 k-point    59 :   0.3333 0.3333 0.1667  plane waves:    2476
 k-point    60 :   0.4167 0.3333 0.1667  plane waves:    2474
[...]
 k-point    70 :   0.4167 0.3333 0.2500  plane waves:    2459
 k-point    71 :   0.5000 0.3333 0.2500  plane waves:    2460
 k-point    72 :   0.4167 0.4167 0.2500  plane waves:    2450
 k-point    73 :   0.5000 0.4167 0.2500  plane waves:    2454
 k-point    74 :   0.5000 0.5000 0.2500  plane waves:    2468
 k-point    75 :   0.3333 0.3333 0.3333  plane waves:    2485
 k-point    76 :   0.4167 0.3333 0.3333  plane waves:    2454
 k-point    77 :   0.5000 0.3333 0.3333  plane waves:    2452
 k-point    78 :   0.4167 0.4167 0.3333  plane waves:    2446
 k-point    79 :   0.5000 0.4167 0.3333  plane waves:    2452
 k-point    80 :   0.5000 0.5000 0.3333  plane waves:    2460
 k-point    81 :   0.4167 0.4167 0.4167  plane waves:    2449
 k-point    82 :   0.5000 0.4167 0.4167  plane waves:    2454
 k-point    83 :   0.5000 0.5000 0.4167  plane waves:    2468
 k-point    84 :   0.5000 0.5000 0.5000  plane waves:    2440

 maximum and minimum number of plane-waves per node :      2517     2440

 maximum number of plane-waves:      2517
 maximum index in each direction:
   IXMAX=    8   IYMAX=    8   IZMAX=    8
   IXMIN=   -8   IYMIN=   -8   IZMIN=   -8

 serial   3D FFT for wavefunctions
 parallel 3D FFT for charge:
    minimum data exchange during FFTs selected (reduces bandwidth)

 Broyden mixing: mesh for mixing (old mesh)
   NGX = 17   NGY = 17   NGZ = 17
  (NGX  = 56   NGY  = 56   NGZ  = 56)
  gives a total of   4913 points

 charge density for first step will be calculated from the start-wavefunctions

 Maximum index for augmentation-charges          594 (set IRDMAX)

 initial charge from wavefunction
 First call to EWALD:  gamma=   0.321
 Maximum number of real-space cells 3x 3x 3
 Maximum number of reciprocal cells 3x 3x 3

--------------------------------------- Ionic step        1  -------------------------------------------

--------------------------------------- Iteration      1(   1)  ---------------------------------------

 eigenvalue-minimisations  :  5088
 total energy-change (2. order) :-0.7732288E+01  (-0.3751740E-05)
 number of electron      40.0000112 magnetization
 augmentation part        9.8957345 magnetization

 Broyden mixing:
  rms(total) = 0.60359E-03    rms(broyden)= 0.60359E-03
  rms(prec ) = 0.10972E-02
  weight for this iteration     100.00

 Free energy of the ion-electron system (eV)
  alpha Z        PSCENC =       120.43058674
  Ewald energy   TEWEN  =     -2389.87157655
  -Hartree energ DENC   =     -1124.16174683
  -exchange      EXHF   =         0.00000000
  -V(xc)+E(xc)   XCENC  =       165.55950555
  PAW double counting   =      2821.24167430    -2805.26819620
  entropy T*S    EENTRO =        -0.00778634
  eigenvalues    EBANDS =      -819.97067696
  atomic energy  EATOM  =      4024.31592805
  Solvation  Ediel_sol  =         0.00000000
  free energy    TOTEN  =        -7.73228824 eV

  energy without entropy =       -7.72450190  energy(sigma->0) =       -7.72839507

--------------------------------------- Iteration      1(   2)  ---------------------------------------

 eigenvalue-minimisations  :  4656
 total energy-change (2. order) : 0.1978203E-05  (-0.3920038E-06)
 number of electron      40.0000112 magnetization
 augmentation part        9.8957345 magnetization

 Free energy of the ion-electron system (eV)
  alpha Z        PSCENC =       120.43058674
  Ewald energy   TEWEN  =     -2389.87157655
  -Hartree energ DENC   =     -1124.12354994
  -exchange      EXHF   =         0.00000000
  -V(xc)+E(xc)   XCENC  =       165.55735911
  PAW double counting   =      2821.18216149    -2805.21013698
  entropy T*S    EENTRO =        -0.00778854
  eigenvalues    EBANDS =      -820.00526963
  atomic energy  EATOM  =      4024.31592805
  Solvation  Ediel_sol  =         0.00000000
  free energy    TOTEN  =        -7.73228626 eV

  energy without entropy =       -7.72449772  energy(sigma->0) =       -7.72839199

 average (electrostatic) potential at core
  the test charge radii are     1.1137
  (the norm of the test charge is              1.0000)
       1 -48.9456       2 -48.9456       3 -48.9456       4 -48.9456

 E-fermi :   1.9576     XC(G=0):  -7.7388     alpha+bet : -7.0952

 val. band max:        1.9496952954   @ k =   0.3333   0.0000   0.0000
 cond. band min:       1.9618477977   @ k =   0.4167   0.4167   0.2500
 fundamental gap:      0.0121525023
 Fermi energy:         1.9576368278

 k-point     1 :       0.0000    0.0000    0.0000
  band No.  band energies     occupation
      1     -40.0547      2.00000
      2     -40.0367      2.00000
      3     -40.0367      2.00000
      4     -40.0367      2.00000
      5     -21.1026      2.00000
      6     -21.1026      2.00000
      7     -21.1026      2.00000
      8     -21.0228      2.00000
      9     -21.0228      2.00000
     10     -21.0228      2.00000
     11     -21.0228      2.00000
     12     -21.0228      2.00000
     13     -21.0228      2.00000
     14     -20.9720      2.00000
     15     -20.9720      2.00000
     16     -20.9720      2.00000
     17      -2.0618      2.00000
     18       1.5076      2.00000
     19       1.5076      2.00000
     20       1.5076      2.00000
     21       2.5392      0.00000
     22       2.5392      0.00000
     23       2.5392      0.00000
     24       2.9309      0.00000
     25       2.9309      0.00000
     26       2.9309      0.00000
     27       4.3009      0.00000
     28       4.3009      0.00000
     29       4.3009      0.00000
     30       5.3723      0.00000
     31       5.3723      0.00000
     32       6.0517      0.00000
     33       6.0517      0.00000
     34       6.0517      0.00000
     35       6.2403      0.00000
     36       6.2403      0.00000
     37       6.2403      0.00000
     38       6.2403      0.00000
     39       6.2403      0.00000
     40       6.2403      0.00000
     41       7.9849      0.00000
     42       7.9849      0.00000
     43       7.9849      0.00000
     44       8.0192      0.00000
     45       8.0192      0.00000
     46       8.0192      0.00000
     47       8.0192      0.00000
     48       8.0192      0.00000

[...]

 k-point    84 :       0.5000    0.5000    0.5000
  band No.  band energies     occupation
      1     -40.0411      2.00000
      2     -40.0411      2.00000
      3     -40.0411      2.00000
      4     -40.0411      2.00000
      5     -21.1105      2.00000
      6     -21.1105      2.00000
      7     -21.1105      2.00000
      8     -21.1105      2.00000
      9     -20.9912      2.00000
     10     -20.9912      2.00000
     11     -20.9912      2.00000
     12     -20.9912      2.00000
     13     -20.9912      2.00000
     14     -20.9912      2.00000
     15     -20.9912      2.00000
     16     -20.9912      2.00000
     17       0.9784      2.00000
     18       0.9784      2.00000
     19       0.9784      2.00000
     20       0.9784      2.00000
     21       1.8022      1.99999
     22       1.8022      1.99999
     23       1.8022      1.99999
     24       1.8022      1.99999
     25       4.1861      0.00000
     26       4.1861      0.00000
     27       4.1861      0.00000
     28       4.1861      0.00000
     29       4.1861      0.00000
     30       4.1861      0.00000
     31       4.1861      0.00000
     32       4.1861      0.00000
     33       6.0584      0.00000
     34       6.0584      0.00000
     35       6.0584      0.00000
     36       6.0584      0.00000
     37       6.0584      0.00000
     38       6.0584      0.00000
     39       6.0584      0.00000
     40       6.0584      0.00000
     41       7.1747      0.00000
     42       7.1747      0.00000
     43       7.1747      0.00000
     44       7.1747      0.00000
     45      10.5787      0.00000
     46      10.5787      0.00000
     47      10.5787      0.00000
     48      10.5787      0.00000

 soft charge-density along one line, spin component           1
         0         1         2         3         4         5         6         7         8         9
 total charge-density along one line

------------------------ aborting loop because EDIFF is reached ----------------------------------------

  FORCE on cell =-STRESS in cart. coord.  units (eV):
  Direction    XX          YY          ZZ          XY          YZ          ZX
  Alpha Z   120.43059   120.43059   120.43059
  Ewald    -796.62421  -796.62421  -796.62421    -0.00000     0.00000    -0.00000
  Hartree   374.68905   374.68905   374.68905    -0.00000    -0.00000    -0.00000
  E(xc)    -173.69255  -173.69255  -173.69255    -0.00000    -0.00000     0.00000
  Local      46.44586    46.44586    46.44586    -0.00000     0.00000    -0.00000
  n-local  -173.60576  -176.00975  -185.38505    -1.21585    -1.14177    -0.82866
  augment    96.57707    96.57707    96.57707     0.00000     0.00000    -0.00000
  Kinetic   508.79384   510.35094   512.21181    -0.18437    -0.82071    -0.80859
  Fock        0.00000     0.00000     0.00000     0.00000     0.00000     0.00000
  Total      -0.05552    -0.05552    -0.05552     0.00000    -0.00000     0.00000
  in kB      -0.52744    -0.52744    -0.52744     0.00000    -0.00000     0.00000

 VOLUME and BASIS-vectors are now :
  energy-cutoff  :      346.61
  volume of cell :      168.66
      direct lattice vectors                 reciprocal lattice vectors
     5.525070000  0.000000000  0.000000000     0.180993182 -0.000000000  0.000000000
     0.000000000  5.525070000  0.000000000     0.000000000  0.180993182  0.000000000
     0.000000000  0.000000000  5.525070000    -0.000000000 -0.000000000  0.180993182

  length of vectors
     5.525070000  5.525070000  5.525070000     0.180993182  0.180993182  0.180993182

 FORCES acting on ions
    electron-ion (+dipol)            ewald-force                    non-local-force                 convergence-correction
   -.182E-13 -.134E-13 -.155E-13   0.276E-14 0.234E-14 0.147E-14   -.272E-24 0.289E-25 0.117E-24   -.200E-13 -.730E-15 -.102E-13
   -.161E-13 0.268E-12 0.252E-12   0.273E-14 0.148E-15 0.240E-14   -.136E-24 -.357E-24 0.574E-26   -.220E-13 -.262E-14 -.302E-13
   0.257E-12 -.125E-13 0.471E-11   -.281E-14 -.764E-15 0.245E-14   -.248E-24 -.494E-24 -.359E-24   -.196E-13 -.380E-15 -.235E-13
   0.257E-12 0.230E-11 0.140E-11   -.283E-14 -.295E-14 -.459E-14   -.373E-25 -.130E-24 -.438E-24   -.214E-13 -.613E-14 -.488E-14
   0.480E-12 0.254E-11 0.635E-11   -.144E-15 -.123E-14 0.173E-14   -.693E-24 -.952E-24 -.675E-24   -.830E-13 -.985E-14 -.688E-13

 POSITION                                       TOTAL-FORCE (eV/Angst)
      0.00000      0.00000      0.00000        -0.000000     -0.000000     -0.000000
      0.00000      2.76254      2.76254        -0.000000     -0.000000      0.000000
      2.76254      0.00000      2.76254        -0.000000     -0.000000      0.000000
      2.76254      2.76254      0.00000         0.000000      0.000000      0.000000
    total drift:                                0.000000      0.000000      0.000000

  FREE ENERGIE OF THE ION-ELECTRON SYSTEM (eV)
  free  energy   TOTEN  =        -7.73228626 eV

  energy  without entropy=       -7.72449772  energy(sigma->0) =       -7.72839199

 writing wavefunctions