 vasp.6.4.3 19Mar24 (build Jun 26 2024 13:02:28) complex

 executed on             LinuxIFC date 2025.08.08  18:27:26

 INCAR:
   ENCUT = 321.8059
   IBRION = -1
   ISMEAR = 0
   ISYM = 2
   LCHARG = True
   LWAVE = True
   SIGMA = 0.05
   SYSTEM = Be

 POTCAR:  PAW_PBE Be 06Sep2000
|           W    W    AA    RRRRR   N    N  II  N    N   GGGG   !!!           |
|           W    W   A  A   R    R  NN   N  II  NN   N  G    G  !!!           |
|           W    W  A    A  R    R  N N  N  II  N N  N  G       !!!           |
|           W WW W  AAAAAA  RRRRR   N  N N  II  N  N N  G  GGG   !            |
|           WW  WW  A    A  R   R   N   NN  II  N   NN  G    G                |
|           W    W  A    A  R    R  N    N  II  N    N   GGGG   !!!           |
|     For optimal performance we recommend to set                             |
|       NCORE = 2 up to number-of-cores-per-socket                            |
|     This setting can greatly improve the performance of VASP for DFT.       |
|     The default, NCORE=1 might be grossly inefficient on modern             |
|     multi-core architectures or massively parallel machines. Do your        |
|     Unfortunately you need to use the default for GW and RPA                |
|     calculations (for HF NCORE is supported but not extensively tested      |
|     yet).                                                                   |

 POTCAR:  PAW_PBE Be 06Sep2000
   VRHFIN =Be: s2p0

   TITEL  = PAW_PBE Be 06Sep2000
   POMASS =    9.013; ZVAL   =    2.000    mass and valenz
   ENMAX  =  247.543; ENMIN  =  185.658 eV

PAW_PBE Be 06Sep2000                    :

 POSCAR: Be2
  positions in direct lattice

 exchange-correlation table for PE
   RHO(1)=    0.500       N(1)  =     2000
   RHO(2)=  100.500       N(2)  =     4000

 ion  position               nearest neighbor table
   1  0.000  0.000  0.000-   2 2.21   2 2.21   2 2.21   2 2.21   2 2.21   2 2.21
   2  0.333  0.333  0.500-   1 2.21   1 2.21   1 2.21   1 2.21   1 2.21   1 2.21

  LATTYP: Found a hexagonal cell.
 ALAT       =     2.2627600000
 C/A-ratio  =     1.5791157701

  Lattice vectors:

 A1 = (  -1.1313800000,  -1.9596076427,   0.0000000000)
 A2 = (   2.2627600000,   0.0000000000,   0.0000000000)
 A3 = (   0.0000000000,   0.0000000000,   3.5731600000)

Analysis of symmetry for initial positions (statically):
 Subroutine PRICEL returns:
 Original cell was already a primitive cell.

 Routine SETGRP: Setting up the symmetry group for a
 hexagonal supercell.

 Subroutine GETGRP returns: Found 24 space group operations
 (whereof 12 operations were pure point group operations)
 out of a pool of 24 trial point group operations.

The static configuration has the point symmetry D_3h.
 The point group associated with its full space group is D_6h.

Analysis of symmetry for dynamics (positions and initial velocities):
 Subroutine PRICEL returns:
 Original cell was already a primitive cell.

 Routine SETGRP: Setting up the symmetry group for a
 hexagonal supercell.

 Subroutine GETGRP returns: Found 24 space group operations
 (whereof 12 operations were pure point group operations)
 out of a pool of 24 trial point group operations.

The dynamic configuration has the point symmetry D_3h.
 The point group associated with its full space group is D_6h.

 Subroutine INISYM returns: Found 24 space group operations
 (whereof 12 operations are pure point group operations),
 and found     1 'primitive' translations

                                     Primitive cell

  volume of cell :      15.8438

  direct lattice vectors                    reciprocal lattice vectors
     2.262760000  0.000000000  0.000000000     0.441938164 -0.255153118  0.000000000
     1.131380000  1.959607643  0.000000000     0.000000000  0.510306236  0.000000000
     0.000000000  0.000000000  3.573160000    -0.000000000 -0.000000000  0.279864322

  length of vectors
     2.262760000  2.262760000  3.573160000     0.510306236  0.510306236  0.279864322

  position of ions in fractional coordinates (direct lattice)
     0.000000000  0.000000000  0.000000000
     0.333333333  0.333333333  0.500000000

  ion indices of the primitive-cell ions
   primitive index   ion index
                 1           1
                 2           2

 KPOINTS: Automatic kpoint scheme

Automatic generation of k-mesh.
 Grid dimensions read from file:
 generate k-points for:    8    8    8

 Generating k-lattice:

  Cartesian coordinates                     Fractional coordinates (reciprocal lattice)
     0.055242271 -0.031894140  0.000000000     0.125000000  0.000000000  0.000000000
     0.000000000  0.063788279  0.000000000     0.000000000  0.125000000  0.000000000
    -0.000000000 -0.000000000  0.034983040    -0.000000000  0.000000000  0.125000000

  Length of vectors
     0.063788279  0.063788279  0.034983040

  Shift w.r.t. Gamma in fractional coordinates (k-lattice)
     0.000000000  0.000000000  0.000000000

 Subroutine IBZKPT returns following result:

 Found     50 irreducible k-points:

 Following reciprocal coordinates:
            Coordinates               Weight
  0.000000  0.000000  0.000000      1.000000
  0.125000 -0.000000  0.000000      6.000000
  0.250000 -0.000000  0.000000      6.000000
  0.375000  0.000000  0.000000      6.000000
  0.500000 -0.000000  0.000000      3.000000
  0.250000  0.125000  0.000000      6.000000
  0.375000  0.125000  0.000000     12.000000
  0.500000  0.125000  0.000000     12.000000
  0.500000  0.250000  0.000000      6.000000
 -0.375000  0.250000  0.000000      6.000000
 -0.000000  0.000000  0.125000      2.000000
  0.125000 -0.000000  0.125000     12.000000
  0.250000 -0.000000  0.125000     12.000000
  0.375000  0.000000  0.125000     12.000000
  0.500000 -0.000000  0.125000      6.000000
  0.250000  0.125000  0.125000     12.000000
  0.375000  0.125000  0.125000     24.000000
  0.500000  0.125000  0.125000     24.000000
  0.500000  0.250000  0.125000     12.000000
 -0.375000  0.250000  0.125000     12.000000
 -0.000000  0.000000  0.250000      2.000000
  0.125000  0.000000  0.250000     12.000000
  0.250000 -0.000000  0.250000     12.000000
  0.375000  0.000000  0.250000     12.000000
  0.500000 -0.000000  0.250000      6.000000
  0.250000  0.125000  0.250000     12.000000
  0.375000  0.125000  0.250000     24.000000
  0.500000  0.125000  0.250000     24.000000
  0.500000  0.250000  0.250000     12.000000
 -0.375000  0.250000  0.250000     12.000000
 -0.000000 -0.000000  0.375000      2.000000
  0.125000 -0.000000  0.375000     12.000000
  0.250000  0.000000  0.375000     12.000000
  0.375000  0.000000  0.375000     12.000000
  0.500000 -0.000000  0.375000      6.000000
  0.250000  0.125000  0.375000     12.000000
  0.375000  0.125000  0.375000     24.000000
  0.500000  0.125000  0.375000     24.000000
  0.500000  0.250000  0.375000     12.000000
 -0.375000  0.250000  0.375000     12.000000
 -0.000000  0.000000  0.500000      1.000000
  0.125000 -0.000000  0.500000      6.000000
  0.250000  0.000000  0.500000      6.000000
  0.375000  0.000000  0.500000      6.000000
  0.500000 -0.000000  0.500000      3.000000
  0.250000  0.125000  0.500000      6.000000
  0.375000  0.125000  0.500000     12.000000
  0.500000  0.125000  0.500000     12.000000
  0.500000  0.250000  0.500000      6.000000
 -0.375000  0.250000  0.500000      6.000000

 Following cartesian coordinates:
            Coordinates               Weight
  0.000000  0.000000  0.000000      1.000000
  0.055242 -0.031894  0.000000      6.000000
  0.110485 -0.063788  0.000000      6.000000
  0.165727 -0.095682  0.000000      6.000000
  0.220969 -0.127577  0.000000      3.000000
  0.110485 -0.000000  0.000000      6.000000
  0.165727 -0.031894  0.000000     12.000000
  0.220969 -0.063788  0.000000     12.000000
  0.220969 -0.000000  0.000000      6.000000
 -0.165727  0.223259  0.000000      6.000000
 -0.000000 -0.000000  0.034983      2.000000
  0.055242 -0.031894  0.034983     12.000000
  0.110485 -0.063788  0.034983     12.000000
  0.165727 -0.095682  0.034983     12.000000
  0.220969 -0.127577  0.034983      6.000000
  0.110485 -0.000000  0.034983     12.000000
  0.165727 -0.031894  0.034983     24.000000
  0.220969 -0.063788  0.034983     24.000000
  0.220969 -0.000000  0.034983     12.000000
 -0.165727  0.223259  0.034983     12.000000
 -0.000000 -0.000000  0.069966      2.000000
  0.055242 -0.031894  0.069966     12.000000
  0.110485 -0.063788  0.069966     12.000000
  0.165727 -0.095682  0.069966     12.000000
  0.220969 -0.127577  0.069966      6.000000
  0.110485 -0.000000  0.069966     12.000000
  0.165727 -0.031894  0.069966     24.000000
  0.220969 -0.063788  0.069966     24.000000
  0.220969 -0.000000  0.069966     12.000000
 -0.165727  0.223259  0.069966     12.000000
 -0.000000 -0.000000  0.104949      2.000000
  0.055242 -0.031894  0.104949     12.000000
  0.110485 -0.063788  0.104949     12.000000
  0.165727 -0.095682  0.104949     12.000000
  0.220969 -0.127577  0.104949      6.000000
  0.110485 -0.000000  0.104949     12.000000
  0.165727 -0.031894  0.104949     24.000000
  0.220969 -0.063788  0.104949     24.000000
  0.220969 -0.000000  0.104949     12.000000
 -0.165727  0.223259  0.104949     12.000000
 -0.000000 -0.000000  0.139932      1.000000
  0.055242 -0.031894  0.139932      6.000000
  0.110485 -0.063788  0.139932      6.000000
  0.165727 -0.095682  0.139932      6.000000
  0.220969 -0.127577  0.139932      3.000000
  0.110485 -0.000000  0.139932      6.000000
  0.165727 -0.031894  0.139932     12.000000
  0.220969 -0.063788  0.139932     12.000000
  0.220969 -0.000000  0.139932      6.000000
 -0.165727  0.223259  0.139932      6.000000

 Subroutine IBZKPT_HF returns following result:

 Found    512 k-points in 1st BZ
 the following    512 k-points will be used (e.g. in the exchange kernel)
 Following reciprocal coordinates:   # in IRBZ
  0.000000  0.000000  0.000000    0.00195312   1 t-inv F
  0.125000 -0.000000  0.000000    0.00195312   2 t-inv F
  0.250000 -0.000000  0.000000    0.00195312   3 t-inv F
  0.375000  0.000000  0.000000    0.00195312   4 t-inv F
  0.500000 -0.000000  0.000000    0.00195312   5 t-inv F
  0.250000  0.125000  0.000000    0.00195312   6 t-inv F
  0.375000  0.125000  0.000000    0.00195312   7 t-inv F
  0.500000  0.125000  0.000000    0.00195312   8 t-inv F
  0.500000  0.250000  0.000000    0.00195312   9 t-inv F
 -0.375000  0.250000  0.000000    0.00195312  10 t-inv F
 -0.000000  0.000000  0.125000    0.00195312  11 t-inv F
  0.125000 -0.000000  0.125000    0.00195312  12 t-inv F
  0.250000 -0.000000  0.125000    0.00195312  13 t-inv F
  0.375000  0.000000  0.125000    0.00195312  14 t-inv F
  0.500000 -0.000000  0.125000    0.00195312  15 t-inv F
  0.250000  0.125000  0.125000    0.00195312  16 t-inv F
  0.375000  0.125000  0.125000    0.00195312  17 t-inv F
  0.500000  0.125000  0.125000    0.00195312  18 t-inv F
  0.500000  0.250000  0.125000    0.00195312  19 t-inv F
 -0.375000  0.250000  0.125000    0.00195312  20 t-inv F
 -0.000000  0.000000  0.250000    0.00195312  21 t-inv F
  0.125000  0.000000  0.250000    0.00195312  22 t-inv F
[...]
  -0.16572681  0.22325898  0.06996608       0.023
  -0.00000000 -0.00000000  0.10494912       0.004
   0.05524227 -0.03189414  0.10494912       0.023
   0.11048454 -0.06378828  0.10494912       0.023
   0.16572681 -0.09568242  0.10494912       0.023
   0.22096908 -0.12757656  0.10494912       0.012
   0.11048454 -0.00000000  0.10494912       0.023
   0.16572681 -0.03189414  0.10494912       0.047
   0.22096908 -0.06378828  0.10494912       0.047
   0.22096908 -0.00000000  0.10494912       0.023
  -0.16572681  0.22325898  0.10494912       0.023
  -0.00000000 -0.00000000  0.13993216       0.002
   0.05524227 -0.03189414  0.13993216       0.012
   0.11048454 -0.06378828  0.13993216       0.012
   0.16572681 -0.09568242  0.13993216       0.012
   0.22096908 -0.12757656  0.13993216       0.006
   0.11048454 -0.00000000  0.13993216       0.012
   0.16572681 -0.03189414  0.13993216       0.023
   0.22096908 -0.06378828  0.13993216       0.023
   0.22096908 -0.00000000  0.13993216       0.012
  -0.16572681  0.22325898  0.13993216       0.012

 k-points in reciprocal lattice and weights: Automatic kpoint scheme
   0.00000000  0.00000000  0.00000000       0.002
   0.12500000 -0.00000000  0.00000000       0.012
   0.25000000 -0.00000000  0.00000000       0.012
   0.37500000  0.00000000  0.00000000       0.012
   0.50000000 -0.00000000  0.00000000       0.006
   0.25000000  0.12500000  0.00000000       0.012
   0.37500000  0.12500000  0.00000000       0.023
   0.50000000  0.12500000  0.00000000       0.023
   0.50000000  0.25000000  0.00000000       0.012
  -0.37500000  0.25000000  0.00000000       0.012
  -0.00000000  0.00000000  0.12500000       0.004
   0.12500000 -0.00000000  0.12500000       0.023
   0.25000000 -0.00000000  0.12500000       0.023
   0.37500000  0.00000000  0.12500000       0.023
   0.50000000 -0.00000000  0.12500000       0.012
   0.25000000  0.12500000  0.12500000       0.023
   0.37500000  0.12500000  0.12500000       0.047
   0.50000000  0.12500000  0.12500000       0.047
   0.50000000  0.25000000  0.12500000       0.023
  -0.37500000  0.25000000  0.12500000       0.023
  -0.00000000  0.00000000  0.25000000       0.004
   0.12500000  0.00000000  0.25000000       0.023
   0.25000000 -0.00000000  0.25000000       0.023
   0.37500000  0.00000000  0.25000000       0.023
   0.50000000 -0.00000000  0.25000000       0.012
   0.25000000  0.12500000  0.25000000       0.023
   0.37500000  0.12500000  0.25000000       0.047
   0.50000000  0.12500000  0.25000000       0.047
   0.50000000  0.25000000  0.25000000       0.023
  -0.37500000  0.25000000  0.25000000       0.023
  -0.00000000 -0.00000000  0.37500000       0.004
   0.12500000 -0.00000000  0.37500000       0.023
   0.25000000  0.00000000  0.37500000       0.023
   0.37500000  0.00000000  0.37500000       0.023
   0.50000000 -0.00000000  0.37500000       0.012
   0.25000000  0.12500000  0.37500000       0.023
   0.37500000  0.12500000  0.37500000       0.047
   0.50000000  0.12500000  0.37500000       0.047
   0.50000000  0.25000000  0.37500000       0.023
  -0.37500000  0.25000000  0.37500000       0.023
  -0.00000000  0.00000000  0.50000000       0.002
   0.12500000 -0.00000000  0.50000000       0.012
   0.25000000  0.00000000  0.50000000       0.012
   0.37500000  0.00000000  0.50000000       0.012
   0.50000000 -0.00000000  0.50000000       0.006
   0.25000000  0.12500000  0.50000000       0.012
   0.37500000  0.12500000  0.50000000       0.023
   0.50000000  0.12500000  0.50000000       0.023
   0.50000000  0.25000000  0.50000000       0.012
  -0.37500000  0.25000000  0.50000000       0.012

 position of ions in fractional coordinates (direct lattice)
   0.00000000  0.00000000  0.00000000
   0.33333333  0.33333333  0.50000000

 position of ions in cartesian coordinates  (Angst):
   0.00000000  0.00000000  0.00000000
   1.13138000  0.65320255  1.78658000

 k-point     1 :   0.0000 0.0000 0.0000  plane waves:     221
 k-point     2 :   0.1250-0.0000 0.0000  plane waves:     209
 k-point     3 :   0.2500-0.0000 0.0000  plane waves:     202
 k-point     4 :   0.3750 0.0000 0.0000  plane waves:     210
 k-point     5 :   0.5000-0.0000 0.0000  plane waves:     218
 k-point     6 :   0.2500 0.1250 0.0000  plane waves:     209
 k-point     7 :   0.3750 0.1250 0.0000  plane waves:     208
 k-point     8 :   0.5000 0.1250 0.0000  plane waves:     207
 k-point     9 :   0.5000 0.2500 0.0000  plane waves:     205
 k-point    10 :  -0.3750 0.2500 0.0000  plane waves:     206
 k-point    11 :  -0.0000 0.0000 0.1250  plane waves:     215
 k-point    12 :   0.1250-0.0000 0.1250  plane waves:     211
 k-point    13 :   0.2500-0.0000 0.1250  plane waves:     205
 k-point    14 :   0.3750 0.0000 0.1250  plane waves:     209
 k-point    15 :   0.5000-0.0000 0.1250  plane waves:     216
 k-point    16 :   0.2500 0.1250 0.1250  plane waves:     211
 k-point    17 :   0.3750 0.1250 0.1250  plane waves:     205
 k-point    18 :   0.5000 0.1250 0.1250  plane waves:     207
 k-point    19 :   0.5000 0.2500 0.1250  plane waves:     207
 k-point    20 :  -0.3750 0.2500 0.1250  plane waves:     207
 k-point    21 :  -0.0000 0.0000 0.2500  plane waves:     208
 k-point    22 :   0.1250 0.0000 0.2500  plane waves:     213
 k-point    23 :   0.2500-0.0000 0.2500  plane waves:     204
 k-point    24 :   0.3750 0.0000 0.2500  plane waves:     206
 k-point    25 :   0.5000-0.0000 0.2500  plane waves:     204
 k-point    26 :   0.2500 0.1250 0.2500  plane waves:     213
 k-point    27 :   0.3750 0.1250 0.2500  plane waves:     207
 k-point    28 :   0.5000 0.1250 0.2500  plane waves:     203
 k-point    29 :   0.5000 0.2500 0.2500  plane waves:     210
 k-point    30 :  -0.3750 0.2500 0.2500  plane waves:     206
 k-point    31 :  -0.0000-0.0000 0.3750  plane waves:     214
 k-point    32 :   0.1250-0.0000 0.3750  plane waves:     211
 k-point    33 :   0.2500 0.0000 0.3750  plane waves:     211
 k-point    34 :   0.3750 0.0000 0.3750  plane waves:     205
 k-point    35 :   0.5000-0.0000 0.3750  plane waves:     208
 k-point    36 :   0.2500 0.1250 0.3750  plane waves:     209
 k-point    37 :   0.3750 0.1250 0.3750  plane waves:     210
 k-point    38 :   0.5000 0.1250 0.3750  plane waves:     206
 k-point    39 :   0.5000 0.2500 0.3750  plane waves:     209
 k-point    40 :  -0.3750 0.2500 0.3750  plane waves:     206
 k-point    41 :  -0.0000 0.0000 0.5000  plane waves:     214
 k-point    42 :   0.1250-0.0000 0.5000  plane waves:     210
 k-point    43 :   0.2500 0.0000 0.5000  plane waves:     206
 k-point    44 :   0.3750 0.0000 0.5000  plane waves:     212
 k-point    45 :   0.5000-0.0000 0.5000  plane waves:     204
 k-point    46 :   0.2500 0.1250 0.5000  plane waves:     210
 k-point    47 :   0.3750 0.1250 0.5000  plane waves:     212
 k-point    48 :   0.5000 0.1250 0.5000  plane waves:     208
 k-point    49 :   0.5000 0.2500 0.5000  plane waves:     206
 k-point    50 :  -0.3750 0.2500 0.5000  plane waves:     204

 maximum and minimum number of plane-waves per node :       221      202

 maximum number of plane-waves:       221
 maximum index in each direction:
   IXMAX=    3   IYMAX=    3   IZMAX=    5
   IXMIN=   -3   IYMIN=   -3   IZMIN=   -5

 serial   3D FFT for wavefunctions
 parallel 3D FFT for charge:
    minimum data exchange during FFTs selected (reduces bandwidth)

 Broyden mixing: mesh for mixing (old mesh)
   NGX =  7   NGY =  7   NGZ = 11
  (NGX  = 20   NGY  = 20   NGZ  = 32)
  gives a total of    539 points

 charge density for first step will be calculated from the start-wavefunctions

 Maximum index for augmentation-charges          241 (set IRDMAX)

 initial charge from wavefunction
 First call to EWALD:  gamma=   0.706
 Maximum number of real-space cells 3x 3x 2
 Maximum number of reciprocal cells 3x 3x 4

--------------------------------------- Ionic step        1  -------------------------------------------

--------------------------------------- Iteration      1(   1)  ---------------------------------------

 eigenvalue-minimisations  :  2928
 total energy-change (2. order) :-0.7532122E+01  (-0.2408119E-06)
 number of electron       4.0000000 magnetization
 augmentation part       -0.0396941 magnetization

 Broyden mixing:
  rms(total) = 0.69080E-04    rms(broyden)= 0.69018E-04
  rms(prec ) = 0.15684E-03
  weight for this iteration     100.00

 Free energy of the ion-electron system (eV)
  alpha Z        PSCENC =         4.41032451
  Ewald energy   TEWEN  =       -83.43647576
  -Hartree energ DENC   =        -0.07969385
  -exchange      EXHF   =         0.00000000
  -V(xc)+E(xc)   XCENC  =         7.65024557
  PAW double counting   =       137.50621437     -136.37809470
  entropy T*S    EENTRO =        -0.00085072
  eigenvalues    EBANDS =         7.83800471
  atomic energy  EATOM  =        54.95820394
  Solvation  Ediel_sol  =         0.00000000
  free energy    TOTEN  =        -7.53212194 eV

  energy without entropy =       -7.53127122  energy(sigma->0) =       -7.53169658

--------------------------------------- Iteration      1(   2)  ---------------------------------------

 eigenvalue-minimisations  :  2496
 total energy-change (2. order) : 0.5160273E-07  (-0.3251864E-09)
 number of electron       4.0000000 magnetization
 augmentation part       -0.0396941 magnetization

 Free energy of the ion-electron system (eV)
  alpha Z        PSCENC =         4.41032451
  Ewald energy   TEWEN  =       -83.43647576
  -Hartree energ DENC   =        -0.07968899
  -exchange      EXHF   =         0.00000000
  -V(xc)+E(xc)   XCENC  =         7.65022333
  PAW double counting   =       137.49416861     -136.36608776
  entropy T*S    EENTRO =        -0.00085069
  eigenvalues    EBANDS =         7.83806093
  atomic energy  EATOM  =        54.95820394
  Solvation  Ediel_sol  =         0.00000000
  free energy    TOTEN  =        -7.53212189 eV

  energy without entropy =       -7.53127120  energy(sigma->0) =       -7.53169654

 average (electrostatic) potential at core
  the test charge radii are     0.9943
  (the norm of the test charge is              1.0000)
       1 -32.7538       2 -32.7538

 E-fermi :   7.7155     XC(G=0): -10.5994     alpha+bet :-16.0658

 val. band max:        6.8721918924   @ k =   0.5000   0.2500   0.1250
 cond. band min:       7.7222479396   @ k =  -0.3750   0.2500   0.3750
 fundamental gap:      0.8500560473
 Fermi energy:         7.7154925008

 k-point     1 :       0.0000    0.0000    0.0000
  band No.  band energies     occupation
      1      -4.3313      2.00000
      2       2.5516      2.00000
      3       8.0649      0.00000
      4      23.0394      0.00000
      5      23.0394      0.00000
      6      25.8669      0.00000
      7      25.8670      0.00000
      8      27.8427      0.00000
      9      34.1234      0.00000
     10      35.4191      0.00000
     11      35.4191      0.00000
     12      36.8649      0.00000
     13      39.9551      0.00000
     14      39.9551      0.00000
     15      40.1944      0.00000
     16      42.0286      0.00000
     17      42.0286      0.00000
     18      42.6715      0.00000
     19      42.9898      0.00000
     20      44.3325      0.00000
     21      44.3325      0.00000
     22      50.0774      0.00000
     23      61.0114      0.00000
     24      62.9775      0.00000
     25      71.1941      0.00000
     26      71.1942      0.00000
     27      74.2067      0.00000
     28      74.2068      0.00000
     29      76.2428      0.00000
     30      76.4035      0.00000
     31      76.4035      0.00000
     32      77.6783      0.00000
     33      77.6784      0.00000
     34      85.0486      0.00000
     35      89.2944      0.00000
     36      94.9409      0.00000
     37      97.2219      0.00000
     38      99.3188      0.00000
     39      99.3192      0.00000
     40     105.4061      0.00000
     41     105.4061      0.00000
     42     106.6987      0.00000
     43     106.6993      0.00000
     44     107.8221      0.00000
     45     113.3416      0.00000
     46     115.6205      0.00000
     47     115.6209      0.00000
     48     116.0468      0.00000

[...]

 k-point    50 :      -0.3750    0.2500    0.5000
  band No.  band energies     occupation
      1       5.0731      2.00000
      2       5.0731      2.00000
      3       8.0766      0.00000
      4       8.0766      0.00000
      5      13.8450      0.00000
      6      13.8450      0.00000
      7      23.0667      0.00000
      8      23.0667      0.00000
      9      31.2973      0.00000
     10      31.2973      0.00000
     11      34.7101      0.00000
     12      34.7101      0.00000
     13      40.2730      0.00000
     14      40.2730      0.00000
     15      45.2244      0.00000
     16      45.2244      0.00000
     17      51.9645      0.00000
     18      51.9645      0.00000
     19      59.4839      0.00000
     20      59.4839      0.00000
     21      65.7792      0.00000
     22      65.7792      0.00000
     23      71.7914      0.00000
     24      71.7914      0.00000
     25      72.8830      0.00000
     26      72.8830      0.00000
     27      74.7388      0.00000
     28      74.7388      0.00000
     29      76.2408      0.00000
     30      76.2408      0.00000
     31      79.2243      0.00000
     32      79.2243      0.00000
     33      82.4334      0.00000
     34      82.4334      0.00000
     35      83.1606      0.00000
     36      83.1606      0.00000
     37      84.3460      0.00000
     38      84.3460      0.00000
     39      93.8219      0.00000
     40      93.8219      0.00000
     41      94.6615      0.00000
     42      94.6615      0.00000
     43      98.9970      0.00000
     44      98.9970      0.00000
     45     102.7422      0.00000
     46     102.7422      0.00000
     47     103.1412      0.00000
     48     103.1412      0.00000

 soft charge-density along one line, spin component           1
         0         1         2         3         4         5         6         7         8         9
 total charge-density along one line

------------------------ aborting loop because EDIFF is reached ----------------------------------------

  FORCE on cell =-STRESS in cart. coord.  units (eV):
  Direction    XX          YY          ZZ          XY          YZ          ZX
  Alpha Z     4.41032     4.41032     4.41032
  Ewald     -28.20064   -28.20064   -27.03526    -0.00000     0.00000     0.00000
  Hartree     0.01966     0.01966     0.04036     0.00000    -0.00000    -0.00000
  E(xc)     -10.50685   -10.50684   -10.52409    -0.00000     0.00000     0.00000
  Local      -0.43187    -0.43186    -1.70543    -0.00001     0.00000     0.00001
  n-local     6.34851     9.45431     8.15681     1.11407    -0.17315     0.31654
  augment    -0.36910    -0.36910    -0.36073    -0.00000    -0.00000    -0.00000
  Kinetic    41.29429    12.90811    27.13461   -13.91006     2.01636    -5.29660
  Fock        0.00000     0.00000     0.00000     0.00000     0.00000     0.00000
  Total      -0.07586    -0.07586     0.11660     0.00000    -0.00000     0.00000
  in kB      -7.67099    -7.67099    11.79097     0.00000    -0.00000     0.00000

 VOLUME and BASIS-vectors are now :
  energy-cutoff  :      321.81
  volume of cell :       15.84
      direct lattice vectors                 reciprocal lattice vectors
     2.262760000  0.000000000  0.000000000     0.441938164 -0.255153118  0.000000000
     1.131380000  1.959607643  0.000000000     0.000000000  0.510306236  0.000000000
     0.000000000  0.000000000  3.573160000    -0.000000000 -0.000000000  0.279864322

  length of vectors
     2.262760000  2.262760000  3.573160000     0.510306236  0.510306236  0.279864322

 FORCES acting on ions
    electron-ion (+dipol)            ewald-force                    non-local-force                 convergence-correction
   0.102E-06 0.588E-07 0.477E-08   0.735E-13 0.429E-13 -.122E-14   -.863E-17 0.664E-17 0.216E-17   0.650E-11 0.375E-11 -.138E-14
   -.143E-06 -.827E-07 -.772E-08   -.731E-13 -.429E-13 0.122E-14   -.563E-18 -.125E-16 -.328E-17   -.650E-11 -.375E-11 0.118E-14
   -.413E-07 -.239E-07 -.295E-08   0.330E-15 -.738E-16 -.121E-17   -.919E-17 -.581E-17 -.112E-17   -.261E-14 -.152E-14 -.200E-15

 POSITION                                       TOTAL-FORCE (eV/Angst)
      0.00000      0.00000      0.00000         0.000000      0.000000     -0.000000
      1.13138      0.65320      1.78658        -0.000000     -0.000000      0.000000
    total drift:                               -0.000000     -0.000000     -0.000000

  FREE ENERGIE OF THE ION-ELECTRON SYSTEM (eV)
  free  energy   TOTEN  =        -7.53212189 eV

  energy  without entropy=       -7.53127120  energy(sigma->0) =       -7.53169654

 writing wavefunctions