 vasp.6.4.3 19Mar24 (build Jun 26 2024 13:02:28) complex

 executed on             LinuxIFC date 2025.08.08  19:49:27

 INCAR:
   ENCUT = 286.43420000000003
   IBRION = -1
   ISMEAR = 0
   ISYM = 2
   LCHARG = True
   LSORBIT = True
   LWAVE = True
   SAXIS = 0 0 1
   SIGMA = 0.05
   SYSTEM = Hf

 POTCAR:  PAW_PBE Hf_pv 06Sep2000
|           W    W    AA    RRRRR   N    N  II  N    N   GGGG   !!!           |
|           W    W   A  A   R    R  NN   N  II  NN   N  G    G  !!!           |
|           W    W  A    A  R    R  N N  N  II  N N  N  G       !!!           |
|           W WW W  AAAAAA  RRRRR   N  N N  II  N  N N  G  GGG   !            |
|           WW  WW  A    A  R   R   N   NN  II  N   NN  G    G                |
|           W    W  A    A  R    R  N    N  II  N    N   GGGG   !!!           |
|     You use a magnetic or noncollinear calculation, but did not specify     |
|     the initial magnetic moment with the MAGMOM tag. Note that a            |
|     default of 1 will be used for all atoms. This ferromagnetic setup       |
|     may break the symmetry of the crystal, in particular it may rule        |
|     out finding an antiferromagnetic solution. Thence, we recommend         |
|     setting the initial magnetic moment manually or verifying carefully     |
|     that this magnetic setup is desired.                                    |

 POTCAR:  PAW_PBE Hf_pv 06Sep2000
   VRHFIN =Hf: 5p6s5d

   TITEL  = PAW_PBE Hf_pv 06Sep2000
   POMASS =  178.490; ZVAL   =   10.000    mass and valenz
   ENMAX  =  220.334; ENMIN  =  165.250 eV

PAW_PBE Hf_pv 06Sep2000                 :

 POSCAR: Hf2
  positions in direct lattice

 exchange-correlation table for PE
   RHO(1)=    0.500       N(1)  =     2000
   RHO(2)=  100.500       N(2)  =     4000

 ion  position               nearest neighbor table
   1  0.000  0.000  0.000-   2 3.14   2 3.14   2 3.14   2 3.14   2 3.14   2 3.14
   2  0.333  0.333  0.500-   1 3.14   1 3.14   1 3.14   1 3.14   1 3.14   1 3.14

  LATTYP: Found a hexagonal cell.
 ALAT       =     3.2027300000
 C/A-ratio  =     1.5814414578

  Lattice vectors:

 A1 = (  -1.6013650000,  -2.7736455415,   0.0000000000)
 A2 = (   3.2027300000,   0.0000000000,   0.0000000000)
 A3 = (   0.0000000000,   0.0000000000,   5.0649300000)

Analysis of symmetry for initial positions (statically):
 Subroutine PRICEL returns:
 Original cell was already a primitive cell.

 Routine SETGRP: Setting up the symmetry group for a
 hexagonal supercell.

 Subroutine GETGRP returns: Found 24 space group operations
 (whereof 12 operations were pure point group operations)
 out of a pool of 24 trial point group operations.

The static configuration has the point symmetry D_3h.
 The point group associated with its full space group is D_6h.

Analysis of symmetry for dynamics (positions and initial velocities):
 Subroutine PRICEL returns:
 Original cell was already a primitive cell.

[...]

The dynamic configuration has the point symmetry D_3h.
 The point group associated with its full space group is D_6h.

Analysis of structural, dynamic, and magnetic symmetry:
 Subroutine PRICEL returns:
 Original cell was already a primitive cell.

 Routine SETGRP: Setting up the symmetry group for a
 hexagonal supercell.

 Subroutine GETGRP returns: Found  2 space group operations
 (whereof  1 operations were pure point group operations)
 out of a pool of 24 trial point group operations.

The overall configuration has the point symmetry C_1 .
 The point group associated with its full space group is S_2 .

 Subroutine INISYM returns: Found  2 space group operations
 (whereof  1 operations are pure point group operations),
 and found     1 'primitive' translations

                                     Primitive cell

  volume of cell :      44.9930

  direct lattice vectors                    reciprocal lattice vectors
     3.202730000  0.000000000  0.000000000     0.312233626 -0.180268168  0.000000000
     1.601365000  2.773645541  0.000000000     0.000000000  0.360536336  0.000000000
     0.000000000  0.000000000  5.064930000    -0.000000000 -0.000000000  0.197436095

  length of vectors
     3.202730000  3.202730000  5.064930000     0.360536336  0.360536336  0.197436095

  position of ions in fractional coordinates (direct lattice)
     0.000000000  0.000000000  0.000000000
     0.333333333  0.333333333  0.500000000

  ion indices of the primitive-cell ions
   primitive index   ion index
                 1           1
                 2           2

 KPOINTS: Automatic kpoint scheme

Automatic generation of k-mesh.
 Grid dimensions read from file:
 generate k-points for:    8    8    8

 Generating k-lattice:

  Cartesian coordinates                     Fractional coordinates (reciprocal lattice)
     0.039029203 -0.022533521  0.000000000     0.125000000 -0.000000000  0.000000000
     0.000000000  0.045067042  0.000000000     0.000000000  0.125000000  0.000000000
    -0.000000000 -0.000000000  0.024679512     0.000000000 -0.000000000  0.125000000

  Length of vectors
     0.045067042  0.045067042  0.024679512

  Shift w.r.t. Gamma in fractional coordinates (k-lattice)
     0.000000000  0.000000000  0.000000000

 Subroutine IBZKPT returns following result:

 Found    260 irreducible k-points:

 Following reciprocal coordinates:
            Coordinates               Weight
  0.000000  0.000000  0.000000      1.000000
  0.125000  0.000000  0.000000      2.000000
  0.125000  0.125000  0.000000      2.000000
  0.000000  0.125000  0.000000      2.000000
  0.250000  0.000000  0.000000      2.000000
  0.250000  0.250000  0.000000      2.000000
  0.000000  0.250000  0.000000      2.000000
  0.375000 -0.000000  0.000000      2.000000
  0.375000  0.375000  0.000000      2.000000
  0.000000  0.375000  0.000000      2.000000
  0.500000  0.000000  0.000000      1.000000
  0.500000  0.500000  0.000000      1.000000
  0.000000  0.500000  0.000000      1.000000
  0.250000  0.125000  0.000000      2.000000
  0.125000  0.250000  0.000000      2.000000
 -0.125000  0.125000  0.000000      2.000000
  0.375000  0.125000  0.000000      2.000000
  0.250000  0.375000  0.000000      2.000000
 -0.125000  0.250000  0.000000      2.000000
  0.250000 -0.125000  0.000000      2.000000
 -0.125000 -0.375000  0.000000      2.000000
 -0.375000 -0.250000  0.000000      2.000000
  0.500000  0.125000  0.000000      2.000000
  0.375000  0.500000  0.000000      2.000000
 -0.125000  0.375000  0.000000      2.000000
  0.375000 -0.125000  0.000000      2.000000
 -0.125000  0.500000  0.000000      2.000000
  0.500000 -0.375000  0.000000      2.000000
  0.500000  0.250000  0.000000      2.000000
  0.250000  0.500000  0.000000      2.000000
 -0.250000  0.250000  0.000000      2.000000
 -0.375000  0.250000  0.000000      2.000000
  0.375000 -0.375000  0.000000      2.000000
 -0.250000  0.375000  0.000000      2.000000
  0.000000 -0.000000  0.125000      2.000000
  0.125000  0.000000  0.125000      2.000000
  0.125000  0.125000  0.125000      2.000000
  0.000000  0.125000  0.125000      2.000000
 -0.125000 -0.000000  0.125000      2.000000
 -0.125000 -0.125000  0.125000      2.000000
  0.000000 -0.125000  0.125000      2.000000
  0.250000  0.000000  0.125000      2.000000
  0.250000  0.250000  0.125000      2.000000
  0.000000  0.250000  0.125000      2.000000
 -0.250000 -0.000000  0.125000      2.000000
 -0.250000 -0.250000  0.125000      2.000000
  0.000000 -0.250000  0.125000      2.000000
  0.375000 -0.000000  0.125000      2.000000
  0.375000  0.375000  0.125000      2.000000
  0.000000  0.375000  0.125000      2.000000
 -0.375000  0.000000  0.125000      2.000000
 -0.375000 -0.375000  0.125000      2.000000
  0.000000 -0.375000  0.125000      2.000000
  0.500000  0.000000  0.125000      2.000000
  0.500000  0.500000  0.125000      2.000000
  0.000000  0.500000  0.125000      2.000000
  0.250000  0.125000  0.125000      2.000000
  0.125000  0.250000  0.125000      2.000000
 -0.125000  0.125000  0.125000      2.000000
 -0.250000 -0.125000  0.125000      2.000000
[...]
  0.250000 -0.125000  0.500000      2.000000
 -0.125000 -0.375000  0.500000      2.000000
 -0.375000 -0.250000  0.500000      2.000000
  0.500000  0.125000  0.500000      2.000000
  0.375000  0.500000  0.500000      2.000000
 -0.125000  0.375000  0.500000      2.000000
  0.375000 -0.125000  0.500000      2.000000
 -0.125000  0.500000  0.500000      2.000000
  0.500000 -0.375000  0.500000      2.000000
  0.500000  0.250000  0.500000      2.000000
  0.250000  0.500000  0.500000      2.000000
 -0.250000  0.250000  0.500000      2.000000
 -0.375000  0.250000  0.500000      2.000000
  0.375000 -0.375000  0.500000      2.000000
 -0.250000  0.375000  0.500000      2.000000

 Following cartesian coordinates:
            Coordinates               Weight
  0.000000  0.000000  0.000000      1.000000
  0.039029 -0.022534  0.000000      2.000000
  0.039029  0.022534  0.000000      2.000000
  0.000000  0.045067  0.000000      2.000000
  0.078058 -0.045067  0.000000      2.000000
  0.078058  0.045067  0.000000      2.000000
  0.000000  0.090134  0.000000      2.000000
  0.117088 -0.067601  0.000000      2.000000
  0.117088  0.067601  0.000000      2.000000
  0.000000  0.135201  0.000000      2.000000
  0.156117 -0.090134  0.000000      1.000000
  0.156117  0.090134  0.000000      1.000000
  0.000000  0.180268  0.000000      1.000000
  0.078058 -0.000000  0.000000      2.000000
  0.039029  0.067601  0.000000      2.000000
 -0.039029  0.067601  0.000000      2.000000
  0.117088 -0.022534  0.000000      2.000000
  0.078058  0.090134  0.000000      2.000000
 -0.039029  0.112668  0.000000      2.000000
  0.078058 -0.090134  0.000000      2.000000
 -0.039029 -0.112668  0.000000      2.000000
 -0.117088 -0.022534  0.000000      2.000000
  0.156117 -0.045067  0.000000      2.000000
  0.117088  0.112668  0.000000      2.000000
 -0.039029  0.157735  0.000000      2.000000
  0.117088 -0.112668  0.000000      2.000000
 -0.039029  0.202802  0.000000      2.000000
  0.156117 -0.225335  0.000000      2.000000
  0.156117 -0.000000  0.000000      2.000000
  0.078058  0.135201  0.000000      2.000000
 -0.078058  0.135201  0.000000      2.000000
 -0.117088  0.157735  0.000000      2.000000
  0.117088 -0.202802  0.000000      2.000000
 -0.078058  0.180268  0.000000      2.000000
 -0.000000 -0.000000  0.024680      2.000000
  0.039029 -0.022534  0.024680      2.000000
  0.039029  0.022534  0.024680      2.000000
 -0.000000  0.045067  0.024680      2.000000
 -0.039029  0.022534  0.024680      2.000000
 -0.039029 -0.022534  0.024680      2.000000
 -0.000000 -0.045067  0.024680      2.000000
  0.078058 -0.045067  0.024680      2.000000
  0.078058  0.045067  0.024680      2.000000
 -0.000000  0.090134  0.024680      2.000000
 -0.078058  0.045067  0.024680      2.000000
 -0.078058 -0.045067  0.024680      2.000000
 -0.000000 -0.090134  0.024680      2.000000
  0.117088 -0.067601  0.024680      2.000000
  0.117088  0.067601  0.024680      2.000000
 -0.000000  0.135201  0.024680      2.000000
 -0.117088  0.067601  0.024680      2.000000
 -0.117088 -0.067601  0.024680      2.000000
 -0.000000 -0.135201  0.024680      2.000000
[...]
 k-point    10 :   0.0000 0.3750 0.0000  plane waves:     968
 k-point    11 :   0.5000 0.0000 0.0000  plane waves:     984
 k-point    12 :   0.5000 0.5000 0.0000  plane waves:     984
 k-point    13 :   0.0000 0.5000 0.0000  plane waves:     984
 k-point    14 :   0.2500 0.1250 0.0000  plane waves:    1002
 k-point    15 :   0.1250 0.2500 0.0000  plane waves:    1002
 k-point    16 :  -0.1250 0.1250 0.0000  plane waves:    1002
 k-point    17 :   0.3750 0.1250 0.0000  plane waves:     976
 k-point    18 :   0.2500 0.3750 0.0000  plane waves:     976
 k-point    19 :  -0.1250 0.2500 0.0000  plane waves:     976
 k-point    20 :   0.2500-0.1250 0.0000  plane waves:     976
 k-point    21 :  -0.1250-0.3750 0.0000  plane waves:     976
 k-point    22 :  -0.3750-0.2500 0.0000  plane waves:     976
 k-point    23 :   0.5000 0.1250 0.0000  plane waves:     978
 k-point    24 :   0.3750 0.5000 0.0000  plane waves:     978
 k-point    25 :  -0.1250 0.3750 0.0000  plane waves:     978
 k-point    26 :   0.3750-0.1250 0.0000  plane waves:     978
 k-point    27 :  -0.1250 0.5000 0.0000  plane waves:     978
 k-point    28 :   0.5000-0.3750 0.0000  plane waves:     978
 k-point    29 :   0.5000 0.2500 0.0000  plane waves:     980
 k-point    30 :   0.2500 0.5000 0.0000  plane waves:     980
 k-point    31 :  -0.2500 0.2500 0.0000  plane waves:     980
 k-point    32 :  -0.3750 0.2500 0.0000  plane waves:     972
 k-point    33 :   0.3750-0.3750 0.0000  plane waves:     972
 k-point    34 :  -0.2500 0.3750 0.0000  plane waves:     972
 k-point    35 :   0.0000-0.0000 0.1250  plane waves:    1024
 k-point    36 :   0.1250 0.0000 0.1250  plane waves:    1012
 k-point    37 :   0.1250 0.1250 0.1250  plane waves:    1012
 k-point    38 :   0.0000 0.1250 0.1250  plane waves:    1012
 k-point    39 :  -0.1250-0.0000 0.1250  plane waves:    1012
 k-point    40 :  -0.1250-0.1250 0.1250  plane waves:    1012
 k-point    41 :   0.0000-0.1250 0.1250  plane waves:    1012
 k-point    42 :   0.2500 0.0000 0.1250  plane waves:     986
 k-point    43 :   0.2500 0.2500 0.1250  plane waves:     986
 k-point    44 :   0.0000 0.2500 0.1250  plane waves:     986
 k-point    45 :  -0.2500-0.0000 0.1250  plane waves:     986
 k-point    46 :  -0.2500-0.2500 0.1250  plane waves:     986
 k-point    47 :   0.0000-0.2500 0.1250  plane waves:     986
 k-point    48 :   0.3750-0.0000 0.1250  plane waves:     990
 k-point    49 :   0.3750 0.3750 0.1250  plane waves:     990
 k-point    50 :   0.0000 0.3750 0.1250  plane waves:     990
 k-point    51 :  -0.3750 0.0000 0.1250  plane waves:     990
 k-point    52 :  -0.3750-0.3750 0.1250  plane waves:     990
 k-point    53 :   0.0000-0.3750 0.1250  plane waves:     990
 k-point    54 :   0.5000 0.0000 0.1250  plane waves:     980
 k-point    55 :   0.5000 0.5000 0.1250  plane waves:     980
 k-point    56 :   0.0000 0.5000 0.1250  plane waves:     980
 k-point    57 :   0.2500 0.1250 0.1250  plane waves:    1000
 k-point    58 :   0.1250 0.2500 0.1250  plane waves:    1000
 k-point    59 :  -0.1250 0.1250 0.1250  plane waves:    1000
 k-point    60 :  -0.2500-0.1250 0.1250  plane waves:    1000
[...]
 k-point   246 :   0.2500-0.1250 0.5000  plane waves:     988
 k-point   247 :  -0.1250-0.3750 0.5000  plane waves:     988
 k-point   248 :  -0.3750-0.2500 0.5000  plane waves:     988
 k-point   249 :   0.5000 0.1250 0.5000  plane waves:     980
 k-point   250 :   0.3750 0.5000 0.5000  plane waves:     980
 k-point   251 :  -0.1250 0.3750 0.5000  plane waves:     980
 k-point   252 :   0.3750-0.1250 0.5000  plane waves:     980
 k-point   253 :  -0.1250 0.5000 0.5000  plane waves:     980
 k-point   254 :   0.5000-0.3750 0.5000  plane waves:     980
 k-point   255 :   0.5000 0.2500 0.5000  plane waves:     992
 k-point   256 :   0.2500 0.5000 0.5000  plane waves:     992
 k-point   257 :  -0.2500 0.2500 0.5000  plane waves:     992
 k-point   258 :  -0.3750 0.2500 0.5000  plane waves:     984
 k-point   259 :   0.3750-0.3750 0.5000  plane waves:     984
 k-point   260 :  -0.2500 0.3750 0.5000  plane waves:     984

 maximum and minimum number of plane-waves per node :      1024      968

 maximum number of plane-waves:      1024
 maximum index in each direction:
   IXMAX=    4   IYMAX=    4   IZMAX=    7
   IXMIN=   -4   IYMIN=   -4   IZMIN=   -7

 serial   3D FFT for wavefunctions
 parallel 3D FFT for charge:
    minimum data exchange during FFTs selected (reduces bandwidth)

 Broyden mixing: mesh for mixing (old mesh)
   NGX =  9   NGY =  9   NGZ = 13
  (NGX  = 28   NGY  = 28   NGZ  = 48)
  gives a total of   1053 points

 charge density for first step will be calculated from the start-wavefunctions

 Maximum index for augmentation-charges          359 (set IRDMAX)

 initial charge from wavefunction
 First call to EWALD:  gamma=   0.498
 Maximum number of real-space cells 3x 3x 2
 Maximum number of reciprocal cells 3x 3x 4

--------------------------------------- Ionic step        1  -------------------------------------------

--------------------------------------- Iteration      1(   1)  ---------------------------------------

 eigenvalue-minimisations  : 18624
 total energy-change (2. order) :-0.2120869E+02  (-0.1190401E-05)
 number of electron      20.0000015 magnetization       0.0001090      0.0001087      0.0002803
 augmentation part        5.4329538 magnetization       0.0000059      0.0000060      0.0000206

 Broyden mixing:
  rms(total) = 0.19701E-02    rms(broyden)= 0.19701E-02
  rms(prec ) = 0.19792E-02
  weight for this iteration     100.00

 Free energy of the ion-electron system (eV)
  alpha Z        PSCENC =       168.35679725
  Ewald energy   TEWEN  =     -1473.01412241
  -Hartree energ DENC   =      -212.19302298
  -exchange      EXHF   =         0.00000000
  -V(xc)+E(xc)   XCENC  =        40.02658806
  PAW double counting   =      2702.40851322    -2680.20486374
  entropy T*S    EENTRO =        -0.00123977
  eigenvalues    EBANDS =      -288.39656743
  atomic energy  EATOM  =      1721.80922856
  Solvation  Ediel_sol  =         0.00000000
  free energy    TOTEN  =       -21.20868924 eV

  energy without entropy =      -21.20744948  energy(sigma->0) =      -21.20806936

--------------------------------------- Iteration      1(   2)  ---------------------------------------

 eigenvalue-minimisations  : 14496
 total energy-change (2. order) :-0.3125065E-06  (-0.1148862E-06)
 number of electron      20.0000015 magnetization       0.0001090      0.0001087      0.0002803
 augmentation part        5.4329538 magnetization       0.0000059      0.0000060      0.0000206

 Free energy of the ion-electron system (eV)
  alpha Z        PSCENC =       168.35679725
  Ewald energy   TEWEN  =     -1473.01412241
  -Hartree energ DENC   =      -212.19523492
  -exchange      EXHF   =         0.00000000
  -V(xc)+E(xc)   XCENC  =        40.02670370
  PAW double counting   =      2702.39637109    -2680.19233541
  entropy T*S    EENTRO =        -0.00123949
  eigenvalues    EBANDS =      -288.39485793
  atomic energy  EATOM  =      1721.80922856
  Solvation  Ediel_sol  =         0.00000000
  free energy    TOTEN  =       -21.20868956 eV

  energy without entropy =      -21.20745007  energy(sigma->0) =      -21.20806981

 average (electrostatic) potential at core
  the test charge radii are     1.1707
  (the norm of the test charge is              1.0000)
       1 -37.4796       2 -37.4796

 E-fermi :   4.9007     XC(G=0): -11.2602     alpha+bet :-11.8613

 val. band max:        4.8720563042   @ k =  -0.2500   0.3750   0.3750
 cond. band min:       4.9164270059   @ k =   0.3750  -0.2500   0.2500
 fundamental gap:      0.0443707017
 Fermi energy:         4.9007387731

 k-point     1 :       0.0000    0.0000    0.0000
  band No.  band energies     occupation
      1     -30.4809      1.00000
      2     -30.4809      1.00000
      3     -30.2274      1.00000
      4     -30.2273      1.00000
      5     -23.8241      1.00000
      6     -23.8241      1.00000
      7     -23.2405      1.00000
      8     -23.2405      1.00000
      9     -23.0896      1.00000
     10     -23.0895      1.00000
     11     -23.0882      1.00000
     12     -23.0882      1.00000
     13      -2.4834      1.00000
     14      -2.4833      1.00000
     15       1.1850      1.00000
     16       1.1851      1.00000
     17       5.5327      0.00000
     18       5.5329      0.00000
     19       5.8541      0.00000
     20       5.8541      0.00000
     21       6.2330      0.00000
     22       6.2331      0.00000
     23       6.2651      0.00000
     24       6.2652      0.00000
     25       6.6116      0.00000
     26       6.6116      0.00000
     27       7.0721      0.00000
     28       7.0722      0.00000
     29       7.4344      0.00000
     30       7.4345      0.00000
     31       7.6514      0.00000
     32       7.6515      0.00000
     33      10.0079      0.00000
     34      10.0079      0.00000
     35      10.3177      0.00000
     36      10.3177      0.00000
     37      13.6970      0.00000
     38      13.6971      0.00000
     39      15.9476      0.00000
     40      15.9478      0.00000
     41      17.6906      0.00000
     42      17.6907      0.00000
     43      17.6981      0.00000
     44      17.6981      0.00000
     45      17.9805      0.00000
     46      17.9807      0.00000
     47      19.4104      0.00000
     48      19.4106      0.00000

[...]

 k-point   260 :      -0.2500    0.3750    0.5000
  band No.  band energies     occupation
      1     -30.4976      1.00000
      2     -30.4976      1.00000
      3     -30.4937      1.00000
      4     -30.4937      1.00000
      5     -23.8436      1.00000
      6     -23.8436      1.00000
      7     -23.6640      1.00000
      8     -23.6640      1.00000
      9     -23.5063      1.00000
     10     -23.5063      1.00000
     11     -23.3275      1.00000
     12     -23.3275      1.00000
     13       2.5674      1.00000
     14       2.5675      1.00000
     15       2.6651      1.00000
     16       2.6652      1.00000
     17       3.8441      1.00000
     18       3.8441      1.00000
     19       4.0014      1.00000
     20       4.0015      1.00000
     21       4.5461      1.00000
     22       4.5463      1.00000
     23       4.7146      1.00000
     24       4.7148      1.00000
     25       7.2421      0.00000
     26       7.2422      0.00000
     27       7.5168      0.00000
     28       7.5168      0.00000
     29      10.0911      0.00000
     30      10.0911      0.00000
     31      10.1009      0.00000
     32      10.1010      0.00000
     33      12.7830      0.00000
     34      12.7831      0.00000
     35      12.9156      0.00000
     36      12.9156      0.00000
     37      13.9886      0.00000
     38      13.9886      0.00000
     39      14.0530      0.00000
     40      14.0531      0.00000
     41      16.3822      0.00000
     42      16.3822      0.00000
     43      16.4887      0.00000
     44      16.4888      0.00000
     45      17.6995      0.00000
     46      17.6996      0.00000
     47      17.6998      0.00000
     48      17.6998      0.00000

 soft charge-density along one line, spin component           1
         0         1         2         3         4         5         6         7         8         9
 total charge-density along one line

[...]

 soft charge-density along one line, spin component           4
         0         1         2         3         4         5         6         7         8         9
 total charge-density along one line

------------------------ aborting loop because EDIFF is reached ----------------------------------------

  FORCE on cell =-STRESS in cart. coord.  units (eV):
  Direction    XX          YY          ZZ          XY          YZ          ZX
  Alpha Z   168.35680   168.35680   168.35680
  Ewald    -497.59389  -497.59389  -477.82737    -0.00000     0.00000     0.00000
  Hartree    68.29488    68.29488    75.60891    -0.00000     0.00000     0.00000
  E(xc)     -79.32339   -79.32340   -79.30582     0.00001    -0.00000    -0.00000
  Local     160.29068   160.29056   135.63553     0.00011    -0.00001    -0.00001
  n-local   -95.00543   -95.00539   -93.44852    -0.00003    -0.00000    -0.00000
  augment    33.76967    33.76976    33.21271    -0.00008    -0.00000    -0.00000
  Kinetic   240.94850   240.94848   237.48300     0.00002    -0.00000    -0.00000
  Fock        0.00000     0.00000     0.00000     0.00000     0.00000     0.00000
  Total      -0.26218    -0.26221    -0.28477     0.00003    -0.00002    -0.00001
  in kB      -9.33622    -9.33715   -10.14037     0.00114    -0.00056    -0.00052

 VOLUME and BASIS-vectors are now :
  energy-cutoff  :      286.43
  volume of cell :       44.99
      direct lattice vectors                 reciprocal lattice vectors
     3.202730000  0.000000000  0.000000000     0.312233626 -0.180268168  0.000000000
     1.601365000  2.773645541  0.000000000     0.000000000  0.360536336  0.000000000
     0.000000000  0.000000000  5.064930000    -0.000000000 -0.000000000  0.197436095

  length of vectors
     3.202730000  3.202730000  5.064930000     0.360536336  0.360536336  0.197436095

 FORCES acting on ions
    electron-ion (+dipol)            ewald-force                    non-local-force                 convergence-correction
   0.602E-05 0.535E-06 0.225E-05   0.915E-12 0.529E-12 -.171E-13   0.461E-06 -.917E-06 0.355E-06   -.381E-05 0.423E-06 -.245E-05
   -.583E-05 -.425E-06 -.225E-05   -.921E-12 -.528E-12 0.171E-13   -.461E-06 0.917E-06 -.355E-06   0.381E-05 -.423E-06 0.245E-05
   0.191E-06 0.110E-06 -.437E-12   -.516E-14 0.630E-15 -.250E-16   -.212E-21 -.106E-21 0.000E+00   -.240E-10 -.890E-11 -.186E-11

 POSITION                                       TOTAL-FORCE (eV/Angst)
      0.00000      0.00000      0.00000         0.000003     -0.000000      0.000000
      1.60137      0.92455      2.53247        -0.000003      0.000000     -0.000000
    total drift:                                0.000000      0.000000     -0.000000

  FREE ENERGIE OF THE ION-ELECTRON SYSTEM (eV)
  free  energy   TOTEN  =       -21.20868956 eV

  energy  without entropy=      -21.20745007  energy(sigma->0) =      -21.20806981

 writing wavefunctions

 Spin-Orbit-Coupling matrix elements

 Ion:    1  E_soc:     -1.3465275
 l=   1
     0.0000000    -0.2163632    -0.2160252
    -0.2163632     0.0000000    -0.2163639
    -0.2160252    -0.2163639     0.0000000
 l=   2
     0.0000000    -0.0014594     0.0000000    -0.0014594    -0.0072874
    -0.0014594     0.0000000    -0.0050454    -0.0012956    -0.0014594
     0.0000000    -0.0050454     0.0000000    -0.0050454     0.0000000
    -0.0014594    -0.0012956    -0.0050454     0.0000000    -0.0014594
    -0.0072874    -0.0014594     0.0000000    -0.0014594     0.0000000
 l=   3
     0.0000000     0.0000000     0.0000000     0.0000000     0.0000000     0.0000000     0.0000000
     0.0000000     0.0000000     0.0000000     0.0000000     0.0000000     0.0000000     0.0000000
     0.0000000     0.0000000     0.0000000     0.0000000     0.0000000     0.0000000     0.0000000
     0.0000000     0.0000000     0.0000000     0.0000000     0.0000000     0.0000000     0.0000000
     0.0000000     0.0000000     0.0000000     0.0000000     0.0000000     0.0000000     0.0000000
     0.0000000     0.0000000     0.0000000     0.0000000     0.0000000     0.0000000     0.0000000
     0.0000000     0.0000000     0.0000000     0.0000000     0.0000000     0.0000000     0.0000000

 Ion:    2  E_soc:     -1.3465275
 l=   1
     0.0000000    -0.2163632    -0.2160252
    -0.2163632     0.0000000    -0.2163639
    -0.2160252    -0.2163639     0.0000000
 l=   2
     0.0000000    -0.0014594     0.0000000    -0.0014594    -0.0072874
    -0.0014594     0.0000000    -0.0050454    -0.0012956    -0.0014594
     0.0000000    -0.0050454     0.0000000    -0.0050454     0.0000000
    -0.0014594    -0.0012956    -0.0050454     0.0000000    -0.0014594
    -0.0072874    -0.0014594     0.0000000    -0.0014594     0.0000000
 l=   3
     0.0000000     0.0000000     0.0000000     0.0000000     0.0000000     0.0000000     0.0000000
     0.0000000     0.0000000     0.0000000     0.0000000     0.0000000     0.0000000     0.0000000
     0.0000000     0.0000000     0.0000000     0.0000000     0.0000000     0.0000000     0.0000000
     0.0000000     0.0000000     0.0000000     0.0000000     0.0000000     0.0000000     0.0000000
     0.0000000     0.0000000     0.0000000     0.0000000     0.0000000     0.0000000     0.0000000
     0.0000000     0.0000000     0.0000000     0.0000000     0.0000000     0.0000000     0.0000000
     0.0000000     0.0000000     0.0000000     0.0000000     0.0000000     0.0000000     0.0000000