 vasp.6.4.3 19Mar24 (build Jun 26 2024 13:02:28) complex

 executed on             LinuxIFC date 2025.08.08  18:52:38

 INCAR:
   ENCUT = 286.1456
   IBRION = -1
   ISMEAR = 0
   ISYM = 2
   LCHARG = True
   LWAVE = True
   SIGMA = 0.05
   SYSTEM = Rb

 POTCAR:  PAW_PBE Rb_sv 06Sep2000
|           W    W    AA    RRRRR   N    N  II  N    N   GGGG   !!!           |
|           W    W   A  A   R    R  NN   N  II  NN   N  G    G  !!!           |
|           W    W  A    A  R    R  N N  N  II  N N  N  G       !!!           |
|           W WW W  AAAAAA  RRRRR   N  N N  II  N  N N  G  GGG   !            |
|           WW  WW  A    A  R   R   N   NN  II  N   NN  G    G                |
|           W    W  A    A  R    R  N    N  II  N    N   GGGG   !!!           |
|     For optimal performance we recommend to set                             |
|       NCORE = 2 up to number-of-cores-per-socket                            |
|     This setting can greatly improve the performance of VASP for DFT.       |
|     The default, NCORE=1 might be grossly inefficient on modern             |
|     multi-core architectures or massively parallel machines. Do your        |
|     Unfortunately you need to use the default for GW and RPA                |
|     calculations (for HF NCORE is supported but not extensively tested      |
|     yet).                                                                   |

 POTCAR:  PAW_PBE Rb_sv 06Sep2000
   VRHFIN =Rb: 4s4p5s

   TITEL  = PAW_PBE Rb_sv 06Sep2000
   POMASS =   85.468; ZVAL   =    9.000    mass and valenz
   ENMAX  =  220.112; ENMIN  =  165.084 eV

PAW_PBE Rb_sv 06Sep2000                 :

 POSCAR: Rb2
  positions in direct lattice

 exchange-correlation table for PE
   RHO(1)=    0.500       N(1)  =     2000
   RHO(2)=  100.500       N(2)  =     4000

 ion  position               nearest neighbor table
   1  0.000  0.000  0.000-   2 4.91   2 4.91   2 4.91   2 4.91   2 4.91   2 4.91   2 4.91   2 4.91

   2  0.500  0.500  0.500-   1 4.91   1 4.91   1 4.91   1 4.91   1 4.91   1 4.91   1 4.91   1 4.91

  LATTYP: Found a simple cubic cell.
 ALAT       =     5.6719700000

  Lattice vectors:

 A1 = (   5.6719700000,   0.0000000000,   0.0000000000)
 A2 = (   0.0000000000,   5.6719700000,   0.0000000000)
 A3 = (   0.0000000000,   0.0000000000,   5.6719700000)

Analysis of symmetry for initial positions (statically):
 Subroutine PRICEL returns following result:

  LATTYP: Found a body centered cubic cell.
 ALAT       =     5.6719700000

[...]

   2 primitive cells build up your supercell.

 Routine SETGRP: Setting up the symmetry group for a
 simple cubic supercell.

 Subroutine GETGRP returns: Found 48 space group operations
 (whereof 48 operations were pure point group operations)
 out of a pool of 48 trial point group operations.

The static configuration has the point symmetry O_h .

Analysis of symmetry for dynamics (positions and initial velocities):
 Subroutine PRICEL returns following result:

  LATTYP: Found a body centered cubic cell.
 ALAT       =     5.6719700000

  Lattice vectors:

 A1 = (   2.8359850000,   2.8359850000,  -2.8359850000)
 A2 = (  -2.8359850000,   2.8359850000,   2.8359850000)
 A3 = (   2.8359850000,  -2.8359850000,   2.8359850000)

   2 primitive cells build up your supercell.

 Routine SETGRP: Setting up the symmetry group for a
 simple cubic supercell.

 Subroutine GETGRP returns: Found 48 space group operations
 (whereof 48 operations were pure point group operations)
 out of a pool of 48 trial point group operations.

The dynamic configuration has the point symmetry O_h .

 Subroutine INISYM returns: Found 48 space group operations
 (whereof 48 operations are pure point group operations),
 and found     2 'primitive' translations

                                     Primitive cell

  volume of cell :      91.2372

  direct lattice vectors                    reciprocal lattice vectors
     2.835985000  2.835985000 -2.835985000     0.176305587  0.176305587 -0.000000000
    -2.835985000  2.835985000  2.835985000    -0.000000000  0.176305587  0.176305587
     2.835985000 -2.835985000  2.835985000     0.176305587 -0.000000000  0.176305587

  length of vectors
     4.912070110  4.912070110  4.912070110     0.249333752  0.249333752  0.249333752

  position of ions in fractional coordinates (direct lattice)
     0.000000000  0.000000000  0.000000000

  ion indices of the primitive-cell ions
   primitive index   ion index
                 1           1

 KPOINTS: Automatic kpoint scheme

Automatic generation of k-mesh.
 Grid dimensions read from file:
 generate k-points for:   12   12   12

 Generating k-lattice:

  Cartesian coordinates                     Fractional coordinates (reciprocal lattice)
     0.014692132 -0.000000000  0.000000000     0.083333333 -0.000000000  0.000000000
     0.000000000  0.014692132  0.000000000     0.000000000  0.083333333  0.000000000
    -0.000000000 -0.000000000  0.014692132    -0.000000000 -0.000000000  0.083333333

  Length of vectors
     0.014692132  0.014692132  0.014692132

  Shift w.r.t. Gamma in fractional coordinates (k-lattice)
     0.000000000  0.000000000  0.000000000

 Subroutine IBZKPT returns following result:

 Found     84 irreducible k-points:

 Following reciprocal coordinates:
            Coordinates               Weight
  0.000000  0.000000  0.000000      1.000000
  0.083333 -0.000000  0.000000      6.000000
  0.166667 -0.000000  0.000000      6.000000
  0.250000  0.000000  0.000000      6.000000
  0.333333  0.000000  0.000000      6.000000
  0.416667 -0.000000  0.000000      6.000000
  0.500000  0.000000  0.000000      3.000000
  0.083333  0.083333  0.000000     12.000000
  0.166667  0.083333  0.000000     24.000000
  0.250000  0.083333  0.000000     24.000000
  0.333333  0.083333  0.000000     24.000000
  0.416667  0.083333  0.000000     24.000000
  0.500000  0.083333  0.000000     12.000000
  0.166667  0.166667  0.000000     12.000000
  0.250000  0.166667  0.000000     24.000000
  0.333333  0.166667  0.000000     24.000000
  0.416667  0.166667  0.000000     24.000000
  0.500000  0.166667  0.000000     12.000000
  0.250000  0.250000  0.000000     12.000000
  0.333333  0.250000  0.000000     24.000000
  0.416667  0.250000  0.000000     24.000000
  0.500000  0.250000  0.000000     12.000000
  0.333333  0.333333  0.000000     12.000000
  0.416667  0.333333  0.000000     24.000000
  0.500000  0.333333  0.000000     12.000000
  0.416667  0.416667  0.000000     12.000000
  0.500000  0.416667  0.000000     12.000000
  0.500000  0.500000  0.000000      3.000000
  0.083333  0.083333  0.083333      8.000000
  0.166667  0.083333  0.083333     24.000000
  0.250000  0.083333  0.083333     24.000000
  0.333333  0.083333  0.083333     24.000000
  0.416667  0.083333  0.083333     24.000000
  0.500000  0.083333  0.083333     12.000000
  0.166667  0.166667  0.083333     24.000000
  0.250000  0.166667  0.083333     48.000000
  0.333333  0.166667  0.083333     48.000000
  0.416667  0.166667  0.083333     48.000000
  0.500000  0.166667  0.083333     24.000000
  0.250000  0.250000  0.083333     24.000000
  0.333333  0.250000  0.083333     48.000000
  0.416667  0.250000  0.083333     48.000000
  0.500000  0.250000  0.083333     24.000000
  0.333333  0.333333  0.083333     24.000000
  0.416667  0.333333  0.083333     48.000000
  0.500000  0.333333  0.083333     24.000000
  0.416667  0.416667  0.083333     24.000000
  0.500000  0.416667  0.083333     24.000000
  0.500000  0.500000  0.083333      6.000000
  0.166667  0.166667  0.166667      8.000000
  0.250000  0.166667  0.166667     24.000000
  0.333333  0.166667  0.166667     24.000000
  0.416667  0.166667  0.166667     24.000000
  0.500000  0.166667  0.166667     12.000000
  0.250000  0.250000  0.166667     24.000000
  0.333333  0.250000  0.166667     48.000000
  0.416667  0.250000  0.166667     48.000000
  0.500000  0.250000  0.166667     24.000000
  0.333333  0.333333  0.166667     24.000000
  0.416667  0.333333  0.166667     48.000000
[...]
  0.416667  0.333333  0.250000     48.000000
  0.500000  0.333333  0.250000     24.000000
  0.416667  0.416667  0.250000     24.000000
  0.500000  0.416667  0.250000     24.000000
  0.500000  0.500000  0.250000      6.000000
  0.333333  0.333333  0.333333      8.000000
  0.416667  0.333333  0.333333     24.000000
  0.500000  0.333333  0.333333     12.000000
  0.416667  0.416667  0.333333     24.000000
  0.500000  0.416667  0.333333     24.000000
  0.500000  0.500000  0.333333      6.000000
  0.416667  0.416667  0.416667      8.000000
  0.500000  0.416667  0.416667     12.000000
  0.500000  0.500000  0.416667      6.000000
  0.500000  0.500000  0.500000      1.000000

 Following cartesian coordinates:
            Coordinates               Weight
  0.000000  0.000000  0.000000      1.000000
  0.014692 -0.000000  0.000000      6.000000
  0.029384 -0.000000  0.000000      6.000000
  0.044076 -0.000000  0.000000      6.000000
  0.058769 -0.000000  0.000000      6.000000
  0.073461 -0.000000  0.000000      6.000000
  0.088153 -0.000000  0.000000      3.000000
  0.014692  0.014692  0.000000     12.000000
  0.029384  0.014692  0.000000     24.000000
  0.044076  0.014692  0.000000     24.000000
  0.058769  0.014692  0.000000     24.000000
  0.073461  0.014692  0.000000     24.000000
  0.088153  0.014692  0.000000     12.000000
  0.029384  0.029384  0.000000     12.000000
  0.044076  0.029384  0.000000     24.000000
  0.058769  0.029384  0.000000     24.000000
  0.073461  0.029384  0.000000     24.000000
  0.088153  0.029384  0.000000     12.000000
  0.044076  0.044076  0.000000     12.000000
  0.058769  0.044076  0.000000     24.000000
  0.073461  0.044076  0.000000     24.000000
  0.088153  0.044076  0.000000     12.000000
  0.058769  0.058769  0.000000     12.000000
  0.073461  0.058769  0.000000     24.000000
  0.088153  0.058769  0.000000     12.000000
  0.073461  0.073461  0.000000     12.000000
  0.088153  0.073461  0.000000     12.000000
  0.088153  0.088153  0.000000      3.000000
  0.014692  0.014692  0.014692      8.000000
  0.029384  0.014692  0.014692     24.000000
  0.044076  0.014692  0.014692     24.000000
  0.058769  0.014692  0.014692     24.000000
  0.073461  0.014692  0.014692     24.000000
  0.088153  0.014692  0.014692     12.000000
  0.029384  0.029384  0.014692     24.000000
  0.044076  0.029384  0.014692     48.000000
  0.058769  0.029384  0.014692     48.000000
  0.073461  0.029384  0.014692     48.000000
  0.088153  0.029384  0.014692     24.000000
  0.044076  0.044076  0.014692     24.000000
  0.058769  0.044076  0.014692     48.000000
  0.073461  0.044076  0.014692     48.000000
  0.088153  0.044076  0.014692     24.000000
  0.058769  0.058769  0.014692     24.000000
  0.073461  0.058769  0.014692     48.000000
  0.088153  0.058769  0.014692     24.000000
  0.073461  0.073461  0.014692     24.000000
  0.088153  0.073461  0.014692     24.000000
  0.088153  0.088153  0.014692      6.000000
  0.029384  0.029384  0.029384      8.000000
  0.044076  0.029384  0.029384     24.000000
  0.058769  0.029384  0.029384     24.000000
  0.073461  0.029384  0.029384     24.000000
[...]
   0.16666667  0.16666667  0.08333333       0.014
   0.25000000  0.16666667  0.08333333       0.028
   0.33333333  0.16666667  0.08333333       0.028
   0.41666667  0.16666667  0.08333333       0.028
   0.50000000  0.16666667  0.08333333       0.014
   0.25000000  0.25000000  0.08333333       0.014
   0.33333333  0.25000000  0.08333333       0.028
   0.41666667  0.25000000  0.08333333       0.028
   0.50000000  0.25000000  0.08333333       0.014
   0.33333333  0.33333333  0.08333333       0.014
   0.41666667  0.33333333  0.08333333       0.028
   0.50000000  0.33333333  0.08333333       0.014
   0.41666667  0.41666667  0.08333333       0.014
   0.50000000  0.41666667  0.08333333       0.014
   0.50000000  0.50000000  0.08333333       0.003
   0.16666667  0.16666667  0.16666667       0.005
   0.25000000  0.16666667  0.16666667       0.014
   0.33333333  0.16666667  0.16666667       0.014
   0.41666667  0.16666667  0.16666667       0.014
   0.50000000  0.16666667  0.16666667       0.007
   0.25000000  0.25000000  0.16666667       0.014
   0.33333333  0.25000000  0.16666667       0.028
   0.41666667  0.25000000  0.16666667       0.028
   0.50000000  0.25000000  0.16666667       0.014
   0.33333333  0.33333333  0.16666667       0.014
   0.41666667  0.33333333  0.16666667       0.028
[...]
   0.41666667  0.33333333  0.25000000       0.028
   0.50000000  0.33333333  0.25000000       0.014
   0.41666667  0.41666667  0.25000000       0.014
   0.50000000  0.41666667  0.25000000       0.014
   0.50000000  0.50000000  0.25000000       0.003
   0.33333333  0.33333333  0.33333333       0.005
   0.41666667  0.33333333  0.33333333       0.014
   0.50000000  0.33333333  0.33333333       0.007
   0.41666667  0.41666667  0.33333333       0.014
   0.50000000  0.41666667  0.33333333       0.014
   0.50000000  0.50000000  0.33333333       0.003
   0.41666667  0.41666667  0.41666667       0.005
   0.50000000  0.41666667  0.41666667       0.007
   0.50000000  0.50000000  0.41666667       0.003
   0.50000000  0.50000000  0.50000000       0.001

 position of ions in fractional coordinates (direct lattice)
   0.00000000  0.00000000  0.00000000
   0.50000000  0.50000000  0.50000000

 position of ions in cartesian coordinates  (Angst):
   0.00000000  0.00000000  0.00000000
   2.83598500  2.83598500  2.83598500

 k-point     1 :   0.0000 0.0000 0.0000  plane waves:    2007
 k-point     2 :   0.0833-0.0000 0.0000  plane waves:    1999
 k-point     3 :   0.1667-0.0000 0.0000  plane waves:    1999
 k-point     4 :   0.2500 0.0000 0.0000  plane waves:    2000
 k-point     5 :   0.3333 0.0000 0.0000  plane waves:    2012
 k-point     6 :   0.4167-0.0000 0.0000  plane waves:    2012
 k-point     7 :   0.5000 0.0000 0.0000  plane waves:    1984
 k-point     8 :   0.0833 0.0833 0.0000  plane waves:    2009
 k-point     9 :   0.1667 0.0833 0.0000  plane waves:    2001
 k-point    10 :   0.2500 0.0833 0.0000  plane waves:    1995
 k-point    11 :   0.3333 0.0833 0.0000  plane waves:    1999
 k-point    12 :   0.4167 0.0833 0.0000  plane waves:    2011
 k-point    13 :   0.5000 0.0833 0.0000  plane waves:    2006
 k-point    14 :   0.1667 0.1667 0.0000  plane waves:    1995
 k-point    15 :   0.2500 0.1667 0.0000  plane waves:    1999
 k-point    16 :   0.3333 0.1667 0.0000  plane waves:    2011
 k-point    17 :   0.4167 0.1667 0.0000  plane waves:    2005
 k-point    18 :   0.5000 0.1667 0.0000  plane waves:    2006
 k-point    19 :   0.2500 0.2500 0.0000  plane waves:    2003
 k-point    20 :   0.3333 0.2500 0.0000  plane waves:    2011
 k-point    21 :   0.4167 0.2500 0.0000  plane waves:    2006
 k-point    22 :   0.5000 0.2500 0.0000  plane waves:    1998
 k-point    23 :   0.3333 0.3333 0.0000  plane waves:    2011
 k-point    24 :   0.4167 0.3333 0.0000  plane waves:    2015
 k-point    25 :   0.5000 0.3333 0.0000  plane waves:    2016
 k-point    26 :   0.4167 0.4167 0.0000  plane waves:    2009
 k-point    27 :   0.5000 0.4167 0.0000  plane waves:    2010
 k-point    28 :   0.5000 0.5000 0.0000  plane waves:    2000
 k-point    29 :   0.0833 0.0833 0.0833  plane waves:    2013
 k-point    30 :   0.1667 0.0833 0.0833  plane waves:    1996
 k-point    31 :   0.2500 0.0833 0.0833  plane waves:    1990
 k-point    32 :   0.3333 0.0833 0.0833  plane waves:    2001
 k-point    33 :   0.4167 0.0833 0.0833  plane waves:    2010
 k-point    34 :   0.5000 0.0833 0.0833  plane waves:    2010
 k-point    35 :   0.1667 0.1667 0.0833  plane waves:    1991
 k-point    36 :   0.2500 0.1667 0.0833  plane waves:    1995
 k-point    37 :   0.3333 0.1667 0.0833  plane waves:    2004
 k-point    38 :   0.4167 0.1667 0.0833  plane waves:    2002
 k-point    39 :   0.5000 0.1667 0.0833  plane waves:    2008
 k-point    40 :   0.2500 0.2500 0.0833  plane waves:    2001
 k-point    41 :   0.3333 0.2500 0.0833  plane waves:    2006
 k-point    42 :   0.4167 0.2500 0.0833  plane waves:    2006
 k-point    43 :   0.5000 0.2500 0.0833  plane waves:    2010
 k-point    44 :   0.3333 0.3333 0.0833  plane waves:    2004
 k-point    45 :   0.4167 0.3333 0.0833  plane waves:    2009
 k-point    46 :   0.5000 0.3333 0.0833  plane waves:    2020
 k-point    47 :   0.4167 0.4167 0.0833  plane waves:    2016
 k-point    48 :   0.5000 0.4167 0.0833  plane waves:    2016
 k-point    49 :   0.5000 0.5000 0.0833  plane waves:    2016
 k-point    50 :   0.1667 0.1667 0.1667  plane waves:    1980
 k-point    51 :   0.2500 0.1667 0.1667  plane waves:    1996
 k-point    52 :   0.3333 0.1667 0.1667  plane waves:    2002
 k-point    53 :   0.4167 0.1667 0.1667  plane waves:    1996
 k-point    54 :   0.5000 0.1667 0.1667  plane waves:    2006
 k-point    55 :   0.2500 0.2500 0.1667  plane waves:    2002
 k-point    56 :   0.3333 0.2500 0.1667  plane waves:    2006
 k-point    57 :   0.4167 0.2500 0.1667  plane waves:    2010
 k-point    58 :   0.5000 0.2500 0.1667  plane waves:    2016
 k-point    59 :   0.3333 0.3333 0.1667  plane waves:    2002
 k-point    60 :   0.4167 0.3333 0.1667  plane waves:    2017
[...]
 k-point    70 :   0.4167 0.3333 0.2500  plane waves:    2017
 k-point    71 :   0.5000 0.3333 0.2500  plane waves:    2012
 k-point    72 :   0.4167 0.4167 0.2500  plane waves:    2013
 k-point    73 :   0.5000 0.4167 0.2500  plane waves:    2008
 k-point    74 :   0.5000 0.5000 0.2500  plane waves:    2016
 k-point    75 :   0.3333 0.3333 0.3333  plane waves:    2016
 k-point    76 :   0.4167 0.3333 0.3333  plane waves:    1999
 k-point    77 :   0.5000 0.3333 0.3333  plane waves:    2012
 k-point    78 :   0.4167 0.4167 0.3333  plane waves:    2002
 k-point    79 :   0.5000 0.4167 0.3333  plane waves:    1998
 k-point    80 :   0.5000 0.5000 0.3333  plane waves:    1984
 k-point    81 :   0.4167 0.4167 0.4167  plane waves:    2004
 k-point    82 :   0.5000 0.4167 0.4167  plane waves:    1980
 k-point    83 :   0.5000 0.5000 0.4167  plane waves:    1976
 k-point    84 :   0.5000 0.5000 0.5000  plane waves:    2008

 maximum and minimum number of plane-waves per node :      2028     1976

 maximum number of plane-waves:      2028
 maximum index in each direction:
   IXMAX=    7   IYMAX=    7   IZMAX=    7
   IXMIN=   -8   IYMIN=   -8   IZMIN=   -8

 serial   3D FFT for wavefunctions
 parallel 3D FFT for charge:
    minimum data exchange during FFTs selected (reduces bandwidth)

 Broyden mixing: mesh for mixing (old mesh)
   NGX = 15   NGY = 15   NGZ = 15
  (NGX  = 48   NGY  = 48   NGZ  = 48)
  gives a total of   3375 points

 charge density for first step will be calculated from the start-wavefunctions

 Maximum index for augmentation-charges          277 (set IRDMAX)

 initial charge from wavefunction
 First call to EWALD:  gamma=   0.312
 Maximum number of real-space cells 3x 3x 3
 Maximum number of reciprocal cells 3x 3x 3

--------------------------------------- Ionic step        1  -------------------------------------------

--------------------------------------- Iteration      1(   1)  ---------------------------------------

 eigenvalue-minimisations  :  5376
 total energy-change (2. order) :-0.1871941E+01  (-0.6675244E-06)
 number of electron      17.9999986 magnetization
 augmentation part       -0.4217442 magnetization

 Broyden mixing:
  rms(total) = 0.23683E-03    rms(broyden)= 0.23682E-03
  rms(prec ) = 0.42098E-03
  weight for this iteration     100.00

 Free energy of the ion-electron system (eV)
  alpha Z        PSCENC =        34.25823695
  Ewald energy   TEWEN  =      -748.37123270
  -Hartree energ DENC   =      -405.42641172
  -exchange      EXHF   =         0.00000000
  -V(xc)+E(xc)   XCENC  =        56.80404419
  PAW double counting   =      1012.36943893    -1003.67428434
  entropy T*S    EENTRO =        -0.00207150
  eigenvalues    EBANDS =      -272.82294461
  atomic energy  EATOM  =      1324.99328387
  Solvation  Ediel_sol  =         0.00000000
  free energy    TOTEN  =        -1.87194094 eV

  energy without entropy =       -1.86986944  energy(sigma->0) =       -1.87090519

--------------------------------------- Iteration      1(   2)  ---------------------------------------

 eigenvalue-minimisations  :  4464
 total energy-change (2. order) :-0.7836502E-07  (-0.4288198E-07)
 number of electron      17.9999986 magnetization
 augmentation part       -0.4217442 magnetization

 Free energy of the ion-electron system (eV)
  alpha Z        PSCENC =        34.25823695
  Ewald energy   TEWEN  =      -748.37123270
  -Hartree energ DENC   =      -405.43389914
  -exchange      EXHF   =         0.00000000
  -V(xc)+E(xc)   XCENC  =        56.80450594
  PAW double counting   =      1012.40169318    -1003.70599333
  entropy T*S    EENTRO =        -0.00207148
  eigenvalues    EBANDS =      -272.81646430
  atomic energy  EATOM  =      1324.99328387
  Solvation  Ediel_sol  =         0.00000000
  free energy    TOTEN  =        -1.87194102 eV

  energy without entropy =       -1.86986954  energy(sigma->0) =       -1.87090528

 average (electrostatic) potential at core
  the test charge radii are     1.1097
  (the norm of the test charge is              1.0000)
       1 -41.2361       2 -41.2361

 E-fermi :   0.0066     XC(G=0):  -5.4589     alpha+bet : -3.2658

 val. band max:       -0.0107602217   @ k =   0.5000   0.2500   0.2500
 cond. band min:       0.0345713946   @ k =   0.5000   0.3333   0.1667
 fundamental gap:      0.0453316162
 Fermi energy:         0.0065603557

 k-point     1 :       0.0000    0.0000    0.0000
  band No.  band energies     occupation
      1     -28.8993      2.00000
      2     -28.8919      2.00000
      3     -13.0108      2.00000
      4     -13.0108      2.00000
      5     -13.0108      2.00000
      6     -12.9425      2.00000
      7     -12.9425      2.00000
      8     -12.9425      2.00000
      9      -1.9590      2.00000
     10       1.2672      0.00000
     11       1.2672      0.00000
     12       3.2529      0.00000
     13       3.2529      0.00000
     14       3.2529      0.00000
     15       3.6839      0.00000
     16       3.6839      0.00000
     17       3.6839      0.00000
     18       4.6141      0.00000
     19       4.6141      0.00000
     20       4.7879      0.00000
     21       5.9745      0.00000
     22       5.9745      0.00000
     23       5.9745      0.00000
     24       6.7035      0.00000
     25       6.7035      0.00000
     26       6.7035      0.00000
     27       9.3012      0.00000
     28       9.3012      0.00000
     29       9.3012      0.00000
     30      10.0198      0.00000
     31      10.0198      0.00000
     32      10.4284      0.00000
     33      10.5155      0.00000
     34      10.5155      0.00000
     35      11.9378      0.00000
     36      12.8158      0.00000
     37      12.8158      0.00000
     38      12.8158      0.00000
     39      13.9630      0.00000
     40      13.9630      0.00000
     41      13.9630      0.00000
     42      14.5636      0.00000
     43      15.3119      0.00000
     44      15.3119      0.00000
     45      15.3119      0.00000
     46      16.4885      0.00000
     47      16.4885      0.00000
     48      16.4885      0.00000

[...]

 k-point    84 :       0.5000    0.5000    0.5000
  band No.  band energies     occupation
      1     -28.8950      2.00000
      2     -28.8950      2.00000
      3     -12.9889      2.00000
      4     -12.9889      2.00000
      5     -12.9889      2.00000
      6     -12.9889      2.00000
      7     -12.9889      2.00000
      8     -12.9889      2.00000
      9       1.3042      0.00000
     10       1.3042      0.00000
     11       1.3042      0.00000
     12       1.3042      0.00000
     13       1.3042      0.00000
     14       1.3042      0.00000
     15       2.5910      0.00000
     16       2.5910      0.00000
     17       5.3392      0.00000
     18       5.3392      0.00000
     19       5.3392      0.00000
     20       5.3392      0.00000
     21       6.6958      0.00000
     22       6.6958      0.00000
     23       6.6958      0.00000
     24       6.6958      0.00000
     25       6.6958      0.00000
     26       6.6958      0.00000
     27      10.1887      0.00000
     28      10.1887      0.00000
     29      10.1887      0.00000
     30      10.1887      0.00000
     31      10.1887      0.00000
     32      10.1887      0.00000
     33      11.1093      0.00000
     34      11.1093      0.00000
     35      11.1093      0.00000
     36      11.1093      0.00000
     37      11.1093      0.00000
     38      11.1093      0.00000
     39      14.0218      0.00000
     40      14.0218      0.00000
     41      15.2939      0.00000
     42      15.2939      0.00000
     43      15.2939      0.00000
     44      15.2939      0.00000
     45      15.2939      0.00000
     46      15.2939      0.00000
     47      15.9518      0.00000
     48      15.9518      0.00000

 soft charge-density along one line, spin component           1
         0         1         2         3         4         5         6         7         8         9
 total charge-density along one line

------------------------ aborting loop because EDIFF is reached ----------------------------------------

  FORCE on cell =-STRESS in cart. coord.  units (eV):
  Direction    XX          YY          ZZ          XY          YZ          ZX
  Alpha Z    34.25824    34.25824    34.25824
  Ewald    -249.45706  -249.45706  -249.45706    -0.00000    -0.00000    -0.00000
  Hartree   135.14865   135.14865   135.14865    -0.00000    -0.00000    -0.00000
  E(xc)     -63.48814   -63.48814   -63.48814     0.00000    -0.00000    -0.00000
  Local     -13.91119   -13.91119   -13.91119    -0.00000     0.00000    -0.00000
  n-local   -87.67435   -88.39799   -88.81052     0.41121     0.11639     0.15891
  augment    -2.18390    -2.18390    -2.18390     0.00000    -0.00000     0.00000
  Kinetic   248.46325   247.52018   247.59677     0.38566     0.30860     0.24395
  Fock        0.00000     0.00000     0.00000     0.00000     0.00000     0.00000
  Total      -0.06762    -0.06762    -0.06762     0.00000     0.00000    -0.00000
  in kB      -0.59371    -0.59371    -0.59371     0.00000     0.00000    -0.00000

 VOLUME and BASIS-vectors are now :
  energy-cutoff  :      286.15
  volume of cell :      182.47
      direct lattice vectors                 reciprocal lattice vectors
     5.671970000  0.000000000  0.000000000     0.176305587 -0.000000000  0.000000000
     0.000000000  5.671970000  0.000000000     0.000000000  0.176305587  0.000000000
     0.000000000  0.000000000  5.671970000    -0.000000000 -0.000000000  0.176305587

  length of vectors
     5.671970000  5.671970000  5.671970000     0.176305587  0.176305587  0.176305587

 FORCES acting on ions
    electron-ion (+dipol)            ewald-force                    non-local-force                 convergence-correction
   -.796E-16 -.723E-16 -.205E-15   -.105E-14 -.305E-15 -.204E-15   -.737E-26 -.499E-25 0.696E-25   -.506E-14 0.387E-14 0.308E-14
   0.679E-13 0.195E-12 -.989E-12   0.884E-15 0.545E-15 0.528E-15   -.722E-26 0.476E-25 -.581E-25   -.629E-14 0.719E-14 0.233E-14
   0.678E-13 0.195E-12 -.989E-12   -.166E-15 0.240E-15 0.324E-15   -.146E-25 -.231E-26 0.115E-25   -.114E-13 0.111E-13 0.541E-14

 POSITION                                       TOTAL-FORCE (eV/Angst)
      0.00000      0.00000      0.00000        -0.000000     -0.000000      0.000000
      2.83599      2.83598      2.83599         0.000000      0.000000     -0.000000
    total drift:                                0.000000      0.000000     -0.000000

  FREE ENERGIE OF THE ION-ELECTRON SYSTEM (eV)
  free  energy   TOTEN  =        -1.87194102 eV

  energy  without entropy=       -1.86986954  energy(sigma->0) =       -1.87090528

 writing wavefunctions