 vasp.6.4.3 19Mar24 (build Jun 26 2024 13:02:28) complex

 executed on             LinuxIFC date 2025.08.08  18:34:57

 INCAR:
   ENCUT = 337.4293
   IBRION = -1
   ISMEAR = 0
   ISYM = 2
   LCHARG = True
   LWAVE = True
   SIGMA = 0.05
   SYSTEM = Na

 POTCAR:  PAW_PBE Na_pv 19Sep2006
|           W    W    AA    RRRRR   N    N  II  N    N   GGGG   !!!           |
|           W    W   A  A   R    R  NN   N  II  NN   N  G    G  !!!           |
|           W    W  A    A  R    R  N N  N  II  N N  N  G       !!!           |
|           W WW W  AAAAAA  RRRRR   N  N N  II  N  N N  G  GGG   !            |
|           WW  WW  A    A  R   R   N   NN  II  N   NN  G    G                |
|           W    W  A    A  R    R  N    N  II  N    N   GGGG   !!!           |
|     For optimal performance we recommend to set                             |
|       NCORE = 2 up to number-of-cores-per-socket                            |
|     This setting can greatly improve the performance of VASP for DFT.       |
|     The default, NCORE=1 might be grossly inefficient on modern             |
|     multi-core architectures or massively parallel machines. Do your        |
|     Unfortunately you need to use the default for GW and RPA                |
|     calculations (for HF NCORE is supported but not extensively tested      |
|     yet).                                                                   |

 POTCAR:  PAW_PBE Na_pv 19Sep2006
   VRHFIN =Na: p6s1

   TITEL  = PAW_PBE Na_pv 19Sep2006
   POMASS =   22.990; ZVAL   =    7.000    mass and valenz
   ENMAX  =  259.561; ENMIN  =  194.671 eV

PAW_PBE Na_pv 19Sep2006                 :

 POSCAR: Na3
  positions in direct lattice

 exchange-correlation table for PE
   RHO(1)=    0.500       N(1)  =     2000
   RHO(2)=  100.500       N(2)  =     4000

 ion  position               nearest neighbor table
   1  0.000  0.000  0.000-
   2  0.222  0.222  0.222-
   3  0.778  0.778  0.778-

  LATTYP: Found a trigonal (rhomboedric) cell.
 ALAT       =     9.4181300000
 COS(alpha) =     0.9210357209

  Lattice vectors:

 A1 = (   3.6681555051,   0.0000000000,   8.6744341537)
 A2 = (   1.7586878855,   3.2190653506,   8.6744341537)
 A3 = (   0.0000000000,   0.0000000000,   9.4181300000)

Analysis of symmetry for initial positions (statically):
 Subroutine PRICEL returns:
 Original cell was already a primitive cell.

 Routine SETGRP: Setting up the symmetry group for a
 trigonal (rhombohedral) supercell.

 Subroutine GETGRP returns: Found 12 space group operations
 (whereof 12 operations were pure point group operations)
 out of a pool of 12 trial point group operations.

The static configuration has the point symmetry D_3d.

Analysis of symmetry for dynamics (positions and initial velocities):
 Subroutine PRICEL returns:
 Original cell was already a primitive cell.

 Routine SETGRP: Setting up the symmetry group for a
 trigonal (rhombohedral) supercell.

 Subroutine GETGRP returns: Found 12 space group operations
 (whereof 12 operations were pure point group operations)
 out of a pool of 12 trial point group operations.

The dynamic configuration has the point symmetry D_3d.

 Subroutine INISYM returns: Found 12 space group operations
 (whereof 12 operations are pure point group operations),
 and found     1 'primitive' translations

                                     Primitive cell

  volume of cell :     111.2096

  direct lattice vectors                    reciprocal lattice vectors
     3.668155505  0.000000000  8.674434154     0.272616578 -0.148939962  0.000000000
     1.758687886  3.219065351  8.674434154     0.000000000  0.310649176  0.000000000
     0.000000000  0.000000000  9.418130000    -0.251089606 -0.148939962  0.106178190

  length of vectors
     9.418130000  9.418130000  9.418130000     0.310649176  0.310649176  0.310649176

  position of ions in fractional coordinates (direct lattice)
     0.000000000  0.000000000  0.000000000
     0.222220000  0.222220000  0.222220000
     0.777780000  0.777780000  0.777780000

  ion indices of the primitive-cell ions
   primitive index   ion index
                 1           1
                 2           2
                 3           3

 KPOINTS: Automatic kpoint scheme

Automatic generation of k-mesh.
 Grid dimensions read from file:
 generate k-points for:    8    8    8

 Generating k-lattice:

  Cartesian coordinates                     Fractional coordinates (reciprocal lattice)
     0.034077072 -0.018617495  0.000000000     0.125000000  0.000000000  0.000000000
     0.000000000  0.038831147  0.000000000     0.000000000  0.125000000  0.000000000
    -0.031386201 -0.018617495  0.013272274    -0.000000000 -0.000000000  0.125000000

  Length of vectors
     0.038831147  0.038831147  0.038831147

  Shift w.r.t. Gamma in fractional coordinates (k-lattice)
     0.000000000  0.000000000  0.000000000

 Subroutine IBZKPT returns following result:

 Found     65 irreducible k-points:

 Following reciprocal coordinates:
            Coordinates               Weight
  0.000000  0.000000  0.000000      1.000000
  0.125000  0.000000  0.000000      6.000000
  0.250000  0.000000  0.000000      6.000000
  0.375000 -0.000000  0.000000      6.000000
  0.500000  0.000000  0.000000      3.000000
  0.125000  0.125000  0.000000      6.000000
  0.250000  0.125000  0.000000     12.000000
  0.375000  0.125000  0.000000     12.000000
  0.500000  0.125000  0.000000     12.000000
 -0.375000  0.125000  0.000000     12.000000
 -0.250000  0.125000  0.000000     12.000000
 -0.125000  0.125000  0.000000      6.000000
  0.250000  0.250000  0.000000      6.000000
  0.375000  0.250000  0.000000     12.000000
  0.500000  0.250000  0.000000     12.000000
 -0.375000  0.250000  0.000000     12.000000
 -0.250000  0.250000  0.000000      6.000000
  0.375000  0.375000  0.000000      6.000000
  0.500000  0.375000  0.000000     12.000000
 -0.375000  0.375000  0.000000      6.000000
  0.500000  0.500000  0.000000      3.000000
  0.125000  0.125000  0.125000      2.000000
  0.250000  0.125000  0.125000      6.000000
  0.375000  0.125000  0.125000      6.000000
  0.500000  0.125000  0.125000      6.000000
 -0.375000  0.125000  0.125000      6.000000
 -0.250000  0.125000  0.125000      6.000000
 -0.125000  0.125000  0.125000      6.000000
  0.250000  0.250000  0.125000      6.000000
  0.375000  0.250000  0.125000     12.000000
  0.500000  0.250000  0.125000     12.000000
 -0.375000  0.250000  0.125000     12.000000
 -0.250000  0.250000  0.125000     12.000000
 -0.125000  0.250000  0.125000     12.000000
  0.375000  0.375000  0.125000      6.000000
  0.500000  0.375000  0.125000     12.000000
 -0.375000  0.375000  0.125000     12.000000
 -0.250000  0.375000  0.125000     12.000000
 -0.125000  0.375000  0.125000     12.000000
  0.500000  0.500000  0.125000      6.000000
 -0.375000  0.500000  0.125000     12.000000
 -0.250000  0.500000  0.125000     12.000000
 -0.125000  0.500000  0.125000      6.000000
 -0.375000 -0.375000  0.125000      6.000000
 -0.250000 -0.375000  0.125000     12.000000
 -0.250000 -0.250000  0.125000      6.000000
  0.250000  0.250000  0.250000      2.000000
  0.375000  0.250000  0.250000      6.000000
  0.500000  0.250000  0.250000      6.000000
 -0.375000  0.250000  0.250000      6.000000
 -0.250000  0.250000  0.250000      6.000000
  0.375000  0.375000  0.250000      6.000000
  0.500000  0.375000  0.250000     12.000000
 -0.375000  0.375000  0.250000     12.000000
 -0.250000  0.375000  0.250000     12.000000
  0.500000  0.500000  0.250000      6.000000
 -0.375000  0.500000  0.250000     12.000000
 -0.250000  0.500000  0.250000      6.000000
 -0.375000 -0.375000  0.250000      6.000000
  0.375000  0.375000  0.375000      2.000000
  0.500000  0.375000  0.375000      6.000000
 -0.375000  0.375000  0.375000      6.000000
  0.500000  0.500000  0.375000      6.000000
 -0.375000  0.500000  0.375000      6.000000
  0.500000  0.500000  0.500000      1.000000

 Following cartesian coordinates:
            Coordinates               Weight
  0.000000  0.000000  0.000000      1.000000
  0.034077 -0.018617  0.000000      6.000000
  0.068154 -0.037235  0.000000      6.000000
  0.102231 -0.055852  0.000000      6.000000
  0.136308 -0.074470  0.000000      3.000000
  0.034077  0.020214  0.000000      6.000000
  0.068154  0.001596  0.000000     12.000000
  0.102231 -0.017021  0.000000     12.000000
  0.136308 -0.035639  0.000000     12.000000
 -0.102231  0.094684  0.000000     12.000000
 -0.068154  0.076066  0.000000     12.000000
 -0.034077  0.057449  0.000000      6.000000
  0.068154  0.040427  0.000000      6.000000
  0.102231  0.021810  0.000000     12.000000
  0.136308  0.003192  0.000000     12.000000
 -0.102231  0.133515  0.000000     12.000000
 -0.068154  0.114897  0.000000      6.000000
  0.102231  0.060641  0.000000      6.000000
  0.136308  0.042023  0.000000     12.000000
 -0.102231  0.172346  0.000000      6.000000
  0.136308  0.080855  0.000000      3.000000
  0.002691  0.001596  0.013272      2.000000
  0.036768 -0.017021  0.013272      6.000000
  0.070845 -0.035639  0.013272      6.000000
  0.104922 -0.054256  0.013272      6.000000
 -0.133617  0.076066  0.013272      6.000000
 -0.099540  0.057449  0.013272      6.000000
 -0.065463  0.038831  0.013272      6.000000
  0.036768  0.021810  0.013272      6.000000
  0.070845  0.003192  0.013272     12.000000
  0.104922 -0.015425  0.013272     12.000000
 -0.133617  0.114897  0.013272     12.000000
 -0.099540  0.096280  0.013272     12.000000
 -0.065463  0.077662  0.013272     12.000000
  0.070845  0.042023  0.013272      6.000000
  0.104922  0.023406  0.013272     12.000000
 -0.133617  0.153728  0.013272     12.000000
 -0.099540  0.135111  0.013272     12.000000
 -0.065463  0.116493  0.013272     12.000000
  0.104922  0.062237  0.013272      6.000000
 -0.133617  0.192560  0.013272     12.000000
 -0.099540  0.173942  0.013272     12.000000
 -0.065463  0.155325  0.013272      6.000000
 -0.133617 -0.079258  0.013272      6.000000
 -0.099540 -0.097876  0.013272     12.000000
 -0.099540 -0.059045  0.013272      6.000000
  0.005382  0.003192  0.026545      2.000000
  0.039459 -0.015425  0.026545      6.000000
  0.073536 -0.034043  0.026545      6.000000
 -0.165004  0.096280  0.026545      6.000000
 -0.130927  0.077662  0.026545      6.000000
  0.039459  0.023406  0.026545      6.000000
  0.073536  0.004788  0.026545     12.000000
 -0.165004  0.135111  0.026545     12.000000
 -0.130927  0.116493  0.026545     12.000000
  0.073536  0.043620  0.026545      6.000000
 -0.165004  0.173942  0.026545     12.000000
 -0.130927  0.155325  0.026545      6.000000
 -0.165004 -0.097876  0.026545      6.000000
  0.008073  0.004788  0.039817      2.000000
  0.042150 -0.013829  0.039817      6.000000
 -0.196390  0.116493  0.039817      6.000000
  0.042150  0.025002  0.039817      6.000000
 -0.196390  0.155325  0.039817      6.000000
  0.010763  0.006385  0.053089      1.000000

 Subroutine IBZKPT_HF returns following result:

 Found    512 k-points in 1st BZ
 the following    512 k-points will be used (e.g. in the exchange kernel)
 Following reciprocal coordinates:   # in IRBZ
[...]
   0.37500000  0.37500000  0.00000000       0.012
   0.50000000  0.37500000  0.00000000       0.023
  -0.37500000  0.37500000  0.00000000       0.012
   0.50000000  0.50000000  0.00000000       0.006
   0.12500000  0.12500000  0.12500000       0.004
   0.25000000  0.12500000  0.12500000       0.012
   0.37500000  0.12500000  0.12500000       0.012
   0.50000000  0.12500000  0.12500000       0.012
  -0.37500000  0.12500000  0.12500000       0.012
  -0.25000000  0.12500000  0.12500000       0.012
  -0.12500000  0.12500000  0.12500000       0.012
   0.25000000  0.25000000  0.12500000       0.012
   0.37500000  0.25000000  0.12500000       0.023
   0.50000000  0.25000000  0.12500000       0.023
  -0.37500000  0.25000000  0.12500000       0.023
  -0.25000000  0.25000000  0.12500000       0.023
  -0.12500000  0.25000000  0.12500000       0.023
   0.37500000  0.37500000  0.12500000       0.012
   0.50000000  0.37500000  0.12500000       0.023
  -0.37500000  0.37500000  0.12500000       0.023
  -0.25000000  0.37500000  0.12500000       0.023
  -0.12500000  0.37500000  0.12500000       0.023
   0.50000000  0.50000000  0.12500000       0.012
  -0.37500000  0.50000000  0.12500000       0.023
  -0.25000000  0.50000000  0.12500000       0.023
  -0.12500000  0.50000000  0.12500000       0.012
  -0.37500000 -0.37500000  0.12500000       0.012
  -0.25000000 -0.37500000  0.12500000       0.023
  -0.25000000 -0.25000000  0.12500000       0.012
   0.25000000  0.25000000  0.25000000       0.004
   0.37500000  0.25000000  0.25000000       0.012
   0.50000000  0.25000000  0.25000000       0.012
  -0.37500000  0.25000000  0.25000000       0.012
  -0.25000000  0.25000000  0.25000000       0.012
   0.37500000  0.37500000  0.25000000       0.012
   0.50000000  0.37500000  0.25000000       0.023
  -0.37500000  0.37500000  0.25000000       0.023
  -0.25000000  0.37500000  0.25000000       0.023
   0.50000000  0.50000000  0.25000000       0.012
  -0.37500000  0.50000000  0.25000000       0.023
  -0.25000000  0.50000000  0.25000000       0.012
  -0.37500000 -0.37500000  0.25000000       0.012
   0.37500000  0.37500000  0.37500000       0.004
   0.50000000  0.37500000  0.37500000       0.012
  -0.37500000  0.37500000  0.37500000       0.012
   0.50000000  0.50000000  0.37500000       0.012
  -0.37500000  0.50000000  0.37500000       0.012
   0.50000000  0.50000000  0.50000000       0.002

 position of ions in fractional coordinates (direct lattice)
   0.00000000  0.00000000  0.00000000
   0.22222000  0.22222000  0.22222000
   0.77778000  0.77778000  0.77778000

 position of ions in cartesian coordinates  (Angst):
   0.00000000  0.00000000  0.00000000
   1.20595314  0.71534070  5.94816236
   4.22089025  2.50372465 20.81883594

 k-point     1 :   0.0000 0.0000 0.0000  plane waves:    1569
 k-point     2 :   0.1250 0.0000 0.0000  plane waves:    1573
 k-point     3 :   0.2500 0.0000 0.0000  plane waves:    1569
 k-point     4 :   0.3750-0.0000 0.0000  plane waves:    1560
 k-point     5 :   0.5000 0.0000 0.0000  plane waves:    1574
 k-point     6 :   0.1250 0.1250 0.0000  plane waves:    1577
 k-point     7 :   0.2500 0.1250 0.0000  plane waves:    1579
 k-point     8 :   0.3750 0.1250 0.0000  plane waves:    1566
 k-point     9 :   0.5000 0.1250 0.0000  plane waves:    1557
 k-point    10 :  -0.3750 0.1250 0.0000  plane waves:    1553
 k-point    11 :  -0.2500 0.1250 0.0000  plane waves:    1561
 k-point    12 :  -0.1250 0.1250 0.0000  plane waves:    1575
 k-point    13 :   0.2500 0.2500 0.0000  plane waves:    1570
 k-point    14 :   0.3750 0.2500 0.0000  plane waves:    1567
 k-point    15 :   0.5000 0.2500 0.0000  plane waves:    1559
 k-point    16 :  -0.3750 0.2500 0.0000  plane waves:    1557
 k-point    17 :  -0.2500 0.2500 0.0000  plane waves:    1564
 k-point    18 :   0.3750 0.3750 0.0000  plane waves:    1568
 k-point    19 :   0.5000 0.3750 0.0000  plane waves:    1558
 k-point    20 :  -0.3750 0.3750 0.0000  plane waves:    1562
 k-point    21 :   0.5000 0.5000 0.0000  plane waves:    1562
 k-point    22 :   0.1250 0.1250 0.1250  plane waves:    1563
 k-point    23 :   0.2500 0.1250 0.1250  plane waves:    1577
 k-point    24 :   0.3750 0.1250 0.1250  plane waves:    1573
 k-point    25 :   0.5000 0.1250 0.1250  plane waves:    1556
 k-point    26 :  -0.3750 0.1250 0.1250  plane waves:    1563
 k-point    27 :  -0.2500 0.1250 0.1250  plane waves:    1566
 k-point    28 :  -0.1250 0.1250 0.1250  plane waves:    1571
 k-point    29 :   0.2500 0.2500 0.1250  plane waves:    1576
 k-point    30 :   0.3750 0.2500 0.1250  plane waves:    1581
 k-point    31 :   0.5000 0.2500 0.1250  plane waves:    1562
 k-point    32 :  -0.3750 0.2500 0.1250  plane waves:    1562
 k-point    33 :  -0.2500 0.2500 0.1250  plane waves:    1559
 k-point    34 :  -0.1250 0.2500 0.1250  plane waves:    1564
 k-point    35 :   0.3750 0.3750 0.1250  plane waves:    1572
 k-point    36 :   0.5000 0.3750 0.1250  plane waves:    1559
 k-point    37 :  -0.3750 0.3750 0.1250  plane waves:    1561
 k-point    38 :  -0.2500 0.3750 0.1250  plane waves:    1563
 k-point    39 :  -0.1250 0.3750 0.1250  plane waves:    1556
 k-point    40 :   0.5000 0.5000 0.1250  plane waves:    1558
 k-point    41 :  -0.3750 0.5000 0.1250  plane waves:    1559
 k-point    42 :  -0.2500 0.5000 0.1250  plane waves:    1562
 k-point    43 :  -0.1250 0.5000 0.1250  plane waves:    1550
 k-point    44 :  -0.3750-0.3750 0.1250  plane waves:    1564
 k-point    45 :  -0.2500-0.3750 0.1250  plane waves:    1557
 k-point    46 :  -0.2500-0.2500 0.1250  plane waves:    1569
 k-point    47 :   0.2500 0.2500 0.2500  plane waves:    1584
 k-point    48 :   0.3750 0.2500 0.2500  plane waves:    1576
 k-point    49 :   0.5000 0.2500 0.2500  plane waves:    1568
 k-point    50 :  -0.3750 0.2500 0.2500  plane waves:    1549
 k-point    51 :  -0.2500 0.2500 0.2500  plane waves:    1560
 k-point    52 :   0.3750 0.3750 0.2500  plane waves:    1584
 k-point    53 :   0.5000 0.3750 0.2500  plane waves:    1578
 k-point    54 :  -0.3750 0.3750 0.2500  plane waves:    1561
 k-point    55 :  -0.2500 0.3750 0.2500  plane waves:    1558
 k-point    56 :   0.5000 0.5000 0.2500  plane waves:    1570
 k-point    57 :  -0.3750 0.5000 0.2500  plane waves:    1558
 k-point    58 :  -0.2500 0.5000 0.2500  plane waves:    1568
 k-point    59 :  -0.3750-0.3750 0.2500  plane waves:    1561
 k-point    60 :   0.3750 0.3750 0.3750  plane waves:    1591
 k-point    61 :   0.5000 0.3750 0.3750  plane waves:    1582
 k-point    62 :  -0.3750 0.3750 0.3750  plane waves:    1579
 k-point    63 :   0.5000 0.5000 0.3750  plane waves:    1583
 k-point    64 :  -0.3750 0.5000 0.3750  plane waves:    1576
 k-point    65 :   0.5000 0.5000 0.5000  plane waves:    1606

 maximum and minimum number of plane-waves per node :      1606     1549

 maximum number of plane-waves:      1606
 maximum index in each direction:
   IXMAX=   14   IYMAX=   14   IZMAX=   14
   IXMIN=  -14   IYMIN=  -14   IZMIN=  -14

 serial   3D FFT for wavefunctions
 parallel 3D FFT for charge:
    minimum data exchange during FFTs selected (reduces bandwidth)

 Broyden mixing: mesh for mixing (old mesh)
   NGX = 29   NGY = 29   NGZ = 29
  (NGX  = 84   NGY  = 84   NGZ  = 84)
  gives a total of  24389 points

 charge density for first step will be calculated from the start-wavefunctions

 Maximum index for augmentation-charges          557 (set IRDMAX)

 initial charge from wavefunction
 First call to EWALD:  gamma=   0.369
 Maximum number of real-space cells 4x 4x 4
 Maximum number of reciprocal cells 5x 5x 5

--------------------------------------- Ionic step        1  -------------------------------------------

--------------------------------------- Iteration      1(   1)  ---------------------------------------

 eigenvalue-minimisations  :  3312
 total energy-change (2. order) :-0.3940207E+01  (-0.2379039E-06)
 number of electron      21.0000031 magnetization
 augmentation part       13.4031295 magnetization

 Broyden mixing:
  rms(total) = 0.98335E-04    rms(broyden)= 0.98312E-04
  rms(prec ) = 0.12307E-03
  weight for this iteration     100.00

 Free energy of the ion-electron system (eV)
  alpha Z        PSCENC =        24.67506247
  Ewald energy   TEWEN  =      -916.77881813
  -Hartree energ DENC   =      -771.79194521
  -exchange      EXHF   =         0.00000000
  -V(xc)+E(xc)   XCENC  =        73.29174069
  PAW double counting   =      1498.02647535    -1764.28573198
  entropy T*S    EENTRO =        -0.00174699
  eigenvalues    EBANDS =      -445.14929818
  atomic energy  EATOM  =      2298.07405512
  Solvation  Ediel_sol  =         0.00000000
  free energy    TOTEN  =        -3.94020688 eV

  energy without entropy =       -3.93845988  energy(sigma->0) =       -3.93933338

--------------------------------------- Iteration      1(   2)  ---------------------------------------

 eigenvalue-minimisations  :  3120
 total energy-change (2. order) : 0.7977883E-07  (-0.1887623E-07)
 number of electron      21.0000031 magnetization
 augmentation part       13.4031295 magnetization

 Free energy of the ion-electron system (eV)
  alpha Z        PSCENC =        24.67506247
  Ewald energy   TEWEN  =      -916.77881813
  -Hartree energ DENC   =      -771.78787845
  -exchange      EXHF   =         0.00000000
  -V(xc)+E(xc)   XCENC  =        73.29146523
  PAW double counting   =      1498.02154354    -1764.27748091
  entropy T*S    EENTRO =        -0.00174699
  eigenvalues    EBANDS =      -445.15640867
  atomic energy  EATOM  =      2298.07405512
  Solvation  Ediel_sol  =         0.00000000
  free energy    TOTEN  =        -3.94020680 eV

  energy without entropy =       -3.93845980  energy(sigma->0) =       -3.93933330

 average (electrostatic) potential at core
  the test charge radii are     0.9254
  (the norm of the test charge is              1.0000)
       1 -50.3713       2 -50.3711       3 -50.3711

 E-fermi :   0.2880     XC(G=0):  -6.5018     alpha+bet : -4.7059

 val. band max:        0.2775945510   @ k =  -0.3750   0.5000   0.1250
 cond. band min:       0.3389868377   @ k =  -0.2500   0.3750   0.2500
 fundamental gap:      0.0613922867
 Fermi energy:         0.2880004900

 k-point     1 :       0.0000    0.0000    0.0000
  band No.  band energies     occupation
      1     -24.5834      2.00000
      2     -24.5833      2.00000
      3     -24.5597      2.00000
      4     -24.5597      2.00000
      5     -24.5595      2.00000
      6     -24.5595      2.00000
      7     -24.5571      2.00000
      8     -24.5559      2.00000
      9     -24.5559      2.00000
     10      -2.9507      2.00000
     11      -1.1299      2.00000
     12      -1.1298      2.00000
     13       4.0859      0.00000
     14       4.0870      0.00000
     15      10.5023      0.00000
     16      10.5023      0.00000
     17      10.6362      0.00000
     18      10.6362      0.00000
     19      10.8871      0.00000
     20      10.8871      0.00000
     21      10.9847      0.00000
     22      11.7433      0.00000
     23      11.8257      0.00000
     24      11.8257      0.00000
     25      12.2167      0.00000
     26      12.3576      0.00000
     27      12.8595      0.00000
     28      13.1145      0.00000
     29      13.1145      0.00000
     30      13.7374      0.00000
     31      13.9187      0.00000
     32      13.9187      0.00000
     33      14.6278      0.00000
     34      14.6278      0.00000
     35      14.7980      0.00000
     36      15.4552      0.00000
     37      15.5222      0.00000
     38      15.5222      0.00000
     39      16.9939      0.00000
     40      18.4865      0.00000
     41      18.4865      0.00000
     42      20.2109      0.00000
     43      20.4401      0.00000
     44      20.4401      0.00000
     45      21.0941      0.00000
     46      21.9866      0.00000
     47      21.9866      0.00000
     48      22.6935      0.00000

[...]

 k-point    65 :       0.5000    0.5000    0.5000
  band No.  band energies     occupation
      1     -24.5922      2.00000
      2     -24.5659      2.00000
      3     -24.5659      2.00000
      4     -24.5609      2.00000
      5     -24.5609      2.00000
      6     -24.5572      2.00000
      7     -24.5572      2.00000
      8     -24.5570      2.00000
      9     -24.5570      2.00000
     10      -2.4894      2.00000
     11      -2.4893      2.00000
     12       0.8852      0.00000
     13       1.2883      0.00000
     14       7.7786      0.00000
     15       7.7883      0.00000
     16      10.3402      0.00000
     17      10.3402      0.00000
     18      10.6643      0.00000
     19      10.6643      0.00000
     20      11.0942      0.00000
     21      11.0942      0.00000
     22      11.4620      0.00000
     23      11.9309      0.00000
     24      12.2730      0.00000
     25      12.2730      0.00000
     26      12.2903      0.00000
     27      12.6027      0.00000
     28      12.6027      0.00000
     29      13.0564      0.00000
     30      13.0564      0.00000
     31      14.0001      0.00000
     32      14.3874      0.00000
     33      14.7159      0.00000
     34      15.7422      0.00000
     35      15.7422      0.00000
     36      16.3246      0.00000
     37      16.3246      0.00000
     38      17.3330      0.00000
     39      17.3330      0.00000
     40      17.4718      0.00000
     41      17.5091      0.00000
     42      18.8772      0.00000
     43      19.2264      0.00000
     44      19.2445      0.00000
     45      19.2445      0.00000
     46      21.7712      0.00000
     47      23.0704      0.00000
     48      23.0704      0.00000

 soft charge-density along one line, spin component           1
         0         1         2         3         4         5         6         7         8         9
 total charge-density along one line

------------------------ aborting loop because EDIFF is reached ----------------------------------------

  FORCE on cell =-STRESS in cart. coord.  units (eV):
  Direction    XX          YY          ZZ          XY          YZ          ZX
  Alpha Z    24.67506    24.67506    24.67506
  Ewald    -305.72855  -305.74017  -305.31035     0.01063     0.05245     0.08842
  Hartree   257.16005   257.15137   257.47231     0.00794     0.03916     0.06602
  E(xc)    -112.70715  -112.70728  -112.70250     0.00012     0.00058     0.00098
  Local     -67.72117   -67.70078   -68.45503    -0.01866    -0.09204    -0.15516
  n-local   -67.03461   -67.00337   -67.01515     0.00449    -0.00304     0.00567
  augment   125.84373   125.84252   125.88750     0.00111     0.00549     0.00925
  Kinetic   147.53532   143.45480   145.37492    -0.61530     0.34701    -0.53467
  Fock        0.00000     0.00000     0.00000     0.00000     0.00000     0.00000
  Total       0.03584     0.04115    -0.15538    -0.00486    -0.02398    -0.04043
  in kB       0.51628     0.59283    -2.23857    -0.07005    -0.34551    -0.58247

 VOLUME and BASIS-vectors are now :
  energy-cutoff  :      337.43
  volume of cell :      111.21
      direct lattice vectors                 reciprocal lattice vectors
     3.668155505  0.000000000  8.674434154     0.272616578 -0.148939962  0.000000000
     1.758687886  3.219065351  8.674434154     0.000000000  0.310649176  0.000000000
     0.000000000  0.000000000  9.418130000    -0.251089606 -0.148939962  0.106178190

  length of vectors
     9.418130000  9.418130000  9.418130000     0.310649176  0.310649176  0.310649176

 FORCES acting on ions
    electron-ion (+dipol)            ewald-force                    non-local-force                 convergence-correction
   -.314E-13 -.263E-13 -.115E-12   -.355E-14 -.355E-14 -.426E-13   0.646E-24 0.242E-23 -.183E-24   -.199E-14 -.892E-14 -.273E-13
   -.829E-02 -.492E-02 -.409E-01   0.734E-02 0.435E-02 0.362E-01   0.101E-02 0.602E-03 0.501E-02   -.208E-04 -.123E-04 -.103E-03
   0.829E-02 0.492E-02 0.409E-01   -.734E-02 -.435E-02 -.362E-01   -.101E-02 -.602E-03 -.501E-02   0.208E-04 0.123E-04 0.103E-03
   0.787E-12 -.392E-13 0.207E-10   0.942E-14 0.235E-15 0.268E-14   0.000E+00 0.000E+00 -.867E-18   0.171E-13 -.197E-13 -.155E-13

 POSITION                                       TOTAL-FORCE (eV/Angst)
      0.00000      0.00000      0.00000        -0.000000      0.000000      0.000000
      1.20595      0.71534      5.94816         0.000039      0.000023      0.000193
      4.22089      2.50372     20.81884        -0.000039     -0.000023     -0.000193
    total drift:                                0.000000     -0.000000      0.000000

  FREE ENERGIE OF THE ION-ELECTRON SYSTEM (eV)
  free  energy   TOTEN  =        -3.94020680 eV

  energy  without entropy=       -3.93845980  energy(sigma->0) =       -3.93933330

 writing wavefunctions