 vasp.6.4.3 19Mar24 (build Jun 26 2024 13:02:28) complex

 executed on             LinuxIFC date 2025.08.08  18:18:49

 INCAR:
   ENCUT = 313.4079
   IBRION = -1
   ISMEAR = 0
   ISYM = 2
   LCHARG = True
   LWAVE = True
   SIGMA = 0.05
   SYSTEM = Sn

 POTCAR:  PAW_PBE Sn_d 06Sep2000
|           W    W    AA    RRRRR   N    N  II  N    N   GGGG   !!!           |
|           W    W   A  A   R    R  NN   N  II  NN   N  G    G  !!!           |
|           W    W  A    A  R    R  N N  N  II  N N  N  G       !!!           |
|           W WW W  AAAAAA  RRRRR   N  N N  II  N  N N  G  GGG   !            |
|           WW  WW  A    A  R   R   N   NN  II  N   NN  G    G                |
|           W    W  A    A  R    R  N    N  II  N    N   GGGG   !!!           |
|     For optimal performance we recommend to set                             |
|       NCORE = 2 up to number-of-cores-per-socket                            |
|     This setting can greatly improve the performance of VASP for DFT.       |
|     The default, NCORE=1 might be grossly inefficient on modern             |
|     multi-core architectures or massively parallel machines. Do your        |
|     Unfortunately you need to use the default for GW and RPA                |
|     calculations (for HF NCORE is supported but not extensively tested      |
|     yet).                                                                   |

 POTCAR:  PAW_PBE Sn_d 06Sep2000
   VRHFIN =Sn: s2p2

   TITEL  = PAW_PBE Sn_d 06Sep2000
   POMASS =  118.710; ZVAL   =   14.000    mass and valenz
   ENMAX  =  241.083; ENMIN  =  180.812 eV

PAW_PBE Sn_d 06Sep2000                  :

 POSCAR: Sn2
  positions in direct lattice

 exchange-correlation table for PE
   RHO(1)=    0.500       N(1)  =     2000
   RHO(2)=  100.500       N(2)  =     4000

 ion  position               nearest neighbor table
   1  0.000  0.000  0.000-   2 2.88   2 2.88   2 2.88   2 2.88
   2  0.250  0.250  0.250-   1 2.88   1 2.88   1 2.88   1 2.88

  LATTYP: Found a face centered cubic cell.
 ALAT       =     6.6559537049

  Lattice vectors:

 A1 = (   4.0759225821,   0.0000000000,   2.3532350000)
 A2 = (   1.3586408607,   3.8428166632,   2.3532350000)
 A3 = (   0.0000000000,   0.0000000000,   4.7064700000)

Analysis of symmetry for initial positions (statically):
 Subroutine PRICEL returns:
 Original cell was already a primitive cell.

 Routine SETGRP: Setting up the symmetry group for a
 face centered cubic supercell.

 Subroutine GETGRP returns: Found 48 space group operations
 (whereof 24 operations were pure point group operations)
 out of a pool of 48 trial point group operations.

The static configuration has the point symmetry T_d .
 The point group associated with its full space group is O_h .

Analysis of symmetry for dynamics (positions and initial velocities):
 Subroutine PRICEL returns:
 Original cell was already a primitive cell.

 Routine SETGRP: Setting up the symmetry group for a
 face centered cubic supercell.

 Subroutine GETGRP returns: Found 48 space group operations
 (whereof 24 operations were pure point group operations)
 out of a pool of 48 trial point group operations.

The dynamic configuration has the point symmetry T_d .
 The point group associated with its full space group is O_h .

 Subroutine INISYM returns: Found 48 space group operations
 (whereof 24 operations are pure point group operations),
 and found     1 'primitive' translations

                                     Primitive cell

  volume of cell :      73.7175

  direct lattice vectors                    reciprocal lattice vectors
     4.075922582  0.000000000  2.353235000     0.245343227 -0.086741930  0.000000000
     1.358640861  3.842816663  2.353235000     0.000000000  0.260225789  0.000000000
     0.000000000  0.000000000  4.706470000    -0.122671614 -0.086741930  0.212473467

  length of vectors
     4.706470000  4.706470000  4.706470000     0.260225789  0.260225789  0.260225789

  position of ions in fractional coordinates (direct lattice)
     0.000000000  0.000000000  0.000000000
     0.250000000  0.250000000  0.250000000

  ion indices of the primitive-cell ions
   primitive index   ion index
                 1           1
                 2           2

 KPOINTS: Automatic kpoint scheme

Automatic generation of k-mesh.
 Grid dimensions read from file:
 generate k-points for:    8    8    8

 Generating k-lattice:

  Cartesian coordinates                     Fractional coordinates (reciprocal lattice)
     0.030667903 -0.010842741  0.000000000     0.125000000  0.000000000  0.000000000
     0.000000000  0.032528224  0.000000000     0.000000000  0.125000000  0.000000000
    -0.015333952 -0.010842741  0.026559183     0.000000000  0.000000000  0.125000000

  Length of vectors
     0.032528224  0.032528224  0.032528224

  Shift w.r.t. Gamma in fractional coordinates (k-lattice)
     0.000000000  0.000000000  0.000000000

 Subroutine IBZKPT returns following result:

 Found     29 irreducible k-points:

 Following reciprocal coordinates:
            Coordinates               Weight
  0.000000  0.000000  0.000000      1.000000
  0.125000  0.000000  0.000000      8.000000
  0.250000  0.000000  0.000000      8.000000
  0.375000 -0.000000  0.000000      8.000000
  0.500000  0.000000  0.000000      4.000000
  0.125000  0.125000  0.000000      6.000000
  0.250000  0.125000  0.000000     24.000000
  0.375000  0.125000  0.000000     24.000000
  0.500000  0.125000  0.000000     24.000000
 -0.375000  0.125000  0.000000     24.000000
 -0.250000  0.125000  0.000000     24.000000
 -0.125000  0.125000  0.000000     12.000000
  0.250000  0.250000  0.000000      6.000000
  0.375000  0.250000  0.000000     24.000000
  0.500000  0.250000  0.000000     24.000000
 -0.375000  0.250000  0.000000     24.000000
 -0.250000  0.250000  0.000000     12.000000
  0.375000  0.375000  0.000000      6.000000
  0.500000  0.375000  0.000000     24.000000
 -0.375000  0.375000  0.000000     12.000000
  0.500000  0.500000  0.000000      3.000000
  0.375000  0.250000  0.125000     24.000000
  0.500000  0.250000  0.125000     48.000000
 -0.375000  0.250000  0.125000     24.000000
  0.500000  0.375000  0.125000     24.000000
 -0.375000  0.375000  0.125000     48.000000
 -0.250000  0.375000  0.125000     24.000000
 -0.375000  0.500000  0.125000     12.000000
 -0.250000  0.500000  0.250000      6.000000

 Following cartesian coordinates:
            Coordinates               Weight
  0.000000  0.000000  0.000000      1.000000
  0.030668 -0.010843  0.000000      8.000000
  0.061336 -0.021685  0.000000      8.000000
  0.092004 -0.032528  0.000000      8.000000
  0.122672 -0.043371  0.000000      4.000000
  0.030668  0.021685  0.000000      6.000000
  0.061336  0.010843  0.000000     24.000000
  0.092004  0.000000  0.000000     24.000000
  0.122672 -0.010843  0.000000     24.000000
 -0.092004  0.065056  0.000000     24.000000
 -0.061336  0.054214  0.000000     24.000000
 -0.030668  0.043371  0.000000     12.000000
  0.061336  0.043371  0.000000      6.000000
  0.092004  0.032528  0.000000     24.000000
  0.122672  0.021685  0.000000     24.000000
 -0.092004  0.097585  0.000000     24.000000
 -0.061336  0.086742  0.000000     12.000000
  0.092004  0.065056  0.000000      6.000000
  0.122672  0.054214  0.000000     24.000000
 -0.092004  0.130113  0.000000     12.000000
  0.122672  0.086742  0.000000      3.000000
  0.076670  0.021685  0.026559     24.000000
  0.107338  0.010843  0.026559     48.000000
 -0.107338  0.086742  0.026559     24.000000
  0.107338  0.043371  0.026559     24.000000
 -0.107338  0.119270  0.026559     48.000000
 -0.076670  0.108427  0.026559     24.000000
 -0.107338  0.151798  0.026559     12.000000
 -0.092004  0.130113  0.053118      6.000000

 Subroutine IBZKPT_HF returns following result:

 Found    512 k-points in 1st BZ
 the following    512 k-points will be used (e.g. in the exchange kernel)
 Following reciprocal coordinates:   # in IRBZ
  0.000000  0.000000  0.000000    0.00195312   1 t-inv F
  0.125000  0.000000  0.000000    0.00195312   2 t-inv F
  0.250000  0.000000  0.000000    0.00195312   3 t-inv F
  0.375000 -0.000000  0.000000    0.00195312   4 t-inv F
  0.500000  0.000000  0.000000    0.00195312   5 t-inv F
  0.125000  0.125000  0.000000    0.00195312   6 t-inv F
  0.250000  0.125000  0.000000    0.00195312   7 t-inv F
  0.375000  0.125000  0.000000    0.00195312   8 t-inv F
  0.500000  0.125000  0.000000    0.00195312   9 t-inv F
 -0.375000  0.125000  0.000000    0.00195312  10 t-inv F
 -0.250000  0.125000  0.000000    0.00195312  11 t-inv F
 -0.125000  0.125000  0.000000    0.00195312  12 t-inv F
  0.250000  0.250000  0.000000    0.00195312  13 t-inv F
  0.375000  0.250000  0.000000    0.00195312  14 t-inv F
  0.500000  0.250000  0.000000    0.00195312  15 t-inv F
 -0.375000  0.250000  0.000000    0.00195312  16 t-inv F
 -0.250000  0.250000  0.000000    0.00195312  17 t-inv F
  0.375000  0.375000  0.000000    0.00195312  18 t-inv F
  0.500000  0.375000  0.000000    0.00195312  19 t-inv F
 -0.375000  0.375000  0.000000    0.00195312  20 t-inv F
  0.500000  0.500000  0.000000    0.00195312  21 t-inv F
  0.375000  0.250000  0.125000    0.00195312  22 t-inv F
  0.500000  0.250000  0.125000    0.00195312  23 t-inv F
 -0.375000  0.250000  0.125000    0.00195312  24 t-inv F
  0.500000  0.375000  0.125000    0.00195312  25 t-inv F
 -0.375000  0.375000  0.125000    0.00195312  26 t-inv F
 -0.250000  0.375000  0.125000    0.00195312  27 t-inv F
 -0.375000  0.500000  0.125000    0.00195312  28 t-inv F
 -0.250000  0.500000  0.250000    0.00195312  29 t-inv F
  0.000000  0.125000  0.000000    0.00195312   2 t-inv F
  0.000000  0.000000  0.125000    0.00195312   2 t-inv F
 -0.125000 -0.125000 -0.125000    0.00195312   2 t-inv F
 -0.125000 -0.000000  0.000000    0.00195312   2 t-inv F
  0.000000 -0.125000 -0.000000    0.00195312   2 t-inv F
 -0.000000  0.000000 -0.125000    0.00195312   2 t-inv F
  0.125000  0.125000  0.125000    0.00195312   2 t-inv F
  0.000000  0.250000  0.000000    0.00195312   3 t-inv F
  0.000000  0.000000  0.250000    0.00195312   3 t-inv F
 -0.250000 -0.250000 -0.250000    0.00195312   3 t-inv F
 -0.250000 -0.000000  0.000000    0.00195312   3 t-inv F
  0.000000 -0.250000 -0.000000    0.00195312   3 t-inv F
 -0.000000  0.000000 -0.250000    0.00195312   3 t-inv F
  0.250000  0.250000  0.250000    0.00195312   3 t-inv F
  0.000000  0.375000 -0.000000    0.00195312   4 t-inv F
 -0.000000  0.000000  0.375000    0.00195312   4 t-inv F
 -0.375000 -0.375000 -0.375000    0.00195312   4 t-inv F
 -0.375000  0.000000  0.000000    0.00195312   4 t-inv F
  0.000000 -0.375000  0.000000    0.00195312   4 t-inv F
  0.000000  0.000000 -0.375000    0.00195312   4 t-inv F
  0.375000  0.375000  0.375000    0.00195312   4 t-inv F
  0.000000  0.500000  0.000000    0.00195312   5 t-inv F
  0.000000  0.000000  0.500000    0.00195312   5 t-inv F
 -0.500000 -0.500000 -0.500000    0.00195312   5 t-inv F
  0.000000  0.125000  0.125000    0.00195312   6 t-inv F
  0.125000  0.000000  0.125000    0.00195312   6 t-inv F
 -0.125000 -0.125000  0.000000    0.00195312   6 t-inv F
[...]
   LBONE     =     F  B-component reconstruction in AE one-centre
   LVGVCALC  =     T  calculate vGv susceptibility
   LVGVAPPL  =     F  apply vGv susceptibility instead of pGv for G=0

 Random number generation:
   RANDOM_GENERATOR = DEFAULT
   PCG_SEED         = not used

 Static calculation
 charge density and potential will be updated during run
 non-spin polarized calculation
 Variant of blocked Davidson
 Davidson routine will perform the subspace rotation
 perform sub-space diagonalisation
    after iterative eigenvector-optimisation
 modified Broyden-mixing scheme, WC =      100.0
 initial mixing is a Kerker type mixing with AMIX =  0.4000 and BMIX =      1.0000
 Hartree-type preconditioning will be used
 using additional bands           34
 reciprocal scheme for non local part
 use partial core corrections
 calculate Harris-corrections to forces
   (improved forces if not selfconsistent)
 use gradient corrections
 use of overlap-Matrix (Vanderbilt PP)
 Gauss-broadening in eV      SIGMA  =   0.05

  energy-cutoff  :      313.41
  volume of cell :       73.72
      direct lattice vectors                 reciprocal lattice vectors
     4.075922582  0.000000000  2.353235000     0.245343227 -0.086741930  0.000000000
     1.358640861  3.842816663  2.353235000     0.000000000  0.260225789  0.000000000
     0.000000000  0.000000000  4.706470000    -0.122671614 -0.086741930  0.212473467

[...]

 old parameters found on file WAVECAR:
  energy-cutoff  :      313.41
  volume of cell :       73.72
      direct lattice vectors                 reciprocal lattice vectors
     4.075922582  0.000000000  2.353235000     0.245343227 -0.086741930  0.000000000
     1.358640861  3.842816663  2.353235000     0.000000000  0.260225789  0.000000000
     0.000000000  0.000000000  4.706470000    -0.122671614 -0.086741930  0.212473467

  length of vectors

 k-points in units of 2pi/SCALE and weight: Automatic kpoint scheme
   0.00000000  0.00000000  0.00000000       0.002
   0.03066790 -0.01084274  0.00000000       0.016
   0.06133581 -0.02168548  0.00000000       0.016
   0.09200371 -0.03252822  0.00000000       0.016
   0.12267161 -0.04337096  0.00000000       0.008
   0.03066790  0.02168548  0.00000000       0.012
   0.06133581  0.01084274  0.00000000       0.047
   0.09200371  0.00000000  0.00000000       0.047
   0.12267161 -0.01084274  0.00000000       0.047
  -0.09200371  0.06505645  0.00000000       0.047
  -0.06133581  0.05421371  0.00000000       0.047
  -0.03066790  0.04337096  0.00000000       0.023
   0.06133581  0.04337096  0.00000000       0.012
   0.09200371  0.03252822  0.00000000       0.047
   0.12267161  0.02168548  0.00000000       0.047
  -0.09200371  0.09758467  0.00000000       0.047
  -0.06133581  0.08674193  0.00000000       0.023
   0.09200371  0.06505645  0.00000000       0.012
   0.12267161  0.05421371  0.00000000       0.047
  -0.09200371  0.13011289  0.00000000       0.023
   0.12267161  0.08674193  0.00000000       0.006
   0.07666976  0.02168548  0.02655918       0.047
   0.10733766  0.01084274  0.02655918       0.094
  -0.10733766  0.08674193  0.02655918       0.047
   0.10733766  0.04337096  0.02655918       0.047
  -0.10733766  0.11927015  0.02655918       0.094
  -0.07666976  0.10842741  0.02655918       0.047
  -0.10733766  0.15179838  0.02655918       0.023
  -0.09200371  0.13011289  0.05311837       0.012

 k-points in reciprocal lattice and weights: Automatic kpoint scheme
   0.00000000  0.00000000  0.00000000       0.002
   0.12500000  0.00000000  0.00000000       0.016
   0.25000000  0.00000000  0.00000000       0.016
   0.37500000 -0.00000000  0.00000000       0.016
   0.50000000  0.00000000  0.00000000       0.008
   0.12500000  0.12500000  0.00000000       0.012
   0.25000000  0.12500000  0.00000000       0.047
   0.37500000  0.12500000  0.00000000       0.047
   0.50000000  0.12500000  0.00000000       0.047
  -0.37500000  0.12500000  0.00000000       0.047
  -0.25000000  0.12500000  0.00000000       0.047
  -0.12500000  0.12500000  0.00000000       0.023
   0.25000000  0.25000000  0.00000000       0.012
   0.37500000  0.25000000  0.00000000       0.047
   0.50000000  0.25000000  0.00000000       0.047
  -0.37500000  0.25000000  0.00000000       0.047
  -0.25000000  0.25000000  0.00000000       0.023
   0.37500000  0.37500000  0.00000000       0.012
   0.50000000  0.37500000  0.00000000       0.047
  -0.37500000  0.37500000  0.00000000       0.023
   0.50000000  0.50000000  0.00000000       0.006
   0.37500000  0.25000000  0.12500000       0.047
   0.50000000  0.25000000  0.12500000       0.094
  -0.37500000  0.25000000  0.12500000       0.047
   0.50000000  0.37500000  0.12500000       0.047
  -0.37500000  0.37500000  0.12500000       0.094
  -0.25000000  0.37500000  0.12500000       0.047
  -0.37500000  0.50000000  0.12500000       0.023
  -0.25000000  0.50000000  0.25000000       0.012

 position of ions in fractional coordinates (direct lattice)
   0.00000000  0.00000000  0.00000000
   0.25000000  0.25000000  0.25000000

 position of ions in cartesian coordinates  (Angst):
   0.00000000  0.00000000  0.00000000
   1.35864086  0.96070417  2.35323500

 k-point     1 :   0.0000 0.0000 0.0000  plane waves:     941
 k-point     2 :   0.1250 0.0000 0.0000  plane waves:     926
 k-point     3 :   0.2500 0.0000 0.0000  plane waves:     932
 k-point     4 :   0.3750-0.0000 0.0000  plane waves:     926
 k-point     5 :   0.5000 0.0000 0.0000  plane waves:     912
 k-point     6 :   0.1250 0.1250 0.0000  plane waves:     929
 k-point     7 :   0.2500 0.1250 0.0000  plane waves:     930
 k-point     8 :   0.3750 0.1250 0.0000  plane waves:     916
 k-point     9 :   0.5000 0.1250 0.0000  plane waves:     926
 k-point    10 :  -0.3750 0.1250 0.0000  plane waves:     925
 k-point    11 :  -0.2500 0.1250 0.0000  plane waves:     930
 k-point    12 :  -0.1250 0.1250 0.0000  plane waves:     923
 k-point    13 :   0.2500 0.2500 0.0000  plane waves:     950
 k-point    14 :   0.3750 0.2500 0.0000  plane waves:     924
 k-point    15 :   0.5000 0.2500 0.0000  plane waves:     932
 k-point    16 :  -0.3750 0.2500 0.0000  plane waves:     935
 k-point    17 :  -0.2500 0.2500 0.0000  plane waves:     919
 k-point    18 :   0.3750 0.3750 0.0000  plane waves:     930
 k-point    19 :   0.5000 0.3750 0.0000  plane waves:     938
 k-point    20 :  -0.3750 0.3750 0.0000  plane waves:     937
 k-point    21 :   0.5000 0.5000 0.0000  plane waves:     934
 k-point    22 :   0.3750 0.2500 0.1250  plane waves:     928
 k-point    23 :   0.5000 0.2500 0.1250  plane waves:     928
 k-point    24 :  -0.3750 0.2500 0.1250  plane waves:     938
 k-point    25 :   0.5000 0.3750 0.1250  plane waves:     932
 k-point    26 :  -0.3750 0.3750 0.1250  plane waves:     926
 k-point    27 :  -0.2500 0.3750 0.1250  plane waves:     928
 k-point    28 :  -0.3750 0.5000 0.1250  plane waves:     930
 k-point    29 :  -0.2500 0.5000 0.2500  plane waves:     932

 maximum and minimum number of plane-waves per node :       950      912

 maximum number of plane-waves:       950
 maximum index in each direction:
   IXMAX=    7   IYMAX=    6   IZMAX=    6
   IXMIN=   -7   IYMIN=   -7   IZMIN=   -7

 serial   3D FFT for wavefunctions
 parallel 3D FFT for charge:
    minimum data exchange during FFTs selected (reduces bandwidth)

 Broyden mixing: mesh for mixing (old mesh)
   NGX = 13   NGY = 13   NGZ = 13
  (NGX  = 40   NGY  = 40   NGZ  = 40)
  gives a total of   2197 points

 charge density for first step will be calculated from the start-wavefunctions

 Maximum index for augmentation-charges          313 (set IRDMAX)

 initial charge from wavefunction
 First call to EWALD:  gamma=   0.423
 Maximum number of real-space cells 3x 3x 3
 Maximum number of reciprocal cells 3x 3x 3

--------------------------------------- Ionic step        1  -------------------------------------------

--------------------------------------- Iteration      1(   1)  ---------------------------------------

 eigenvalue-minimisations  :  3696
 total energy-change (2. order) :-0.7684240E+01  (-0.9386634E-06)
 number of electron      28.0000234 magnetization
 augmentation part       14.6677090 magnetization

 Broyden mixing:
  rms(total) = 0.16290E-03    rms(broyden)= 0.16288E-03
  rms(prec ) = 0.39216E-03
  weight for this iteration     100.00

 Free energy of the ion-electron system (eV)
  alpha Z        PSCENC =        60.76520552
  Ewald energy   TEWEN  =     -2284.19170917
  -Hartree energ DENC   =     -1279.22856427
  -exchange      EXHF   =         0.00000000
  -V(xc)+E(xc)   XCENC  =       113.30673067
  PAW double counting   =      3797.33330261    -3875.17093537
  entropy T*S    EENTRO =        -0.00058929
  eigenvalues    EBANDS =      -326.66022646
  atomic energy  EATOM  =      3786.16254605
  Solvation  Ediel_sol  =         0.00000000
  free energy    TOTEN  =        -7.68423971 eV

  energy without entropy =       -7.68365042  energy(sigma->0) =       -7.68394507

--------------------------------------- Iteration      1(   2)  ---------------------------------------

 eigenvalue-minimisations  :  1872
 total energy-change (2. order) : 0.3173795E-06  (-0.2993987E-07)
 number of electron      28.0000234 magnetization
 augmentation part       14.6677090 magnetization

 Free energy of the ion-electron system (eV)
  alpha Z        PSCENC =        60.76520552
  Ewald energy   TEWEN  =     -2284.19170917
  -Hartree energ DENC   =     -1279.21824842
  -exchange      EXHF   =         0.00000000
  -V(xc)+E(xc)   XCENC  =       113.30633193
  PAW double counting   =      3797.40816864    -3875.24345497
  entropy T*S    EENTRO =        -0.00058912
  eigenvalues    EBANDS =      -326.67248984
  atomic energy  EATOM  =      3786.16254605
  Solvation  Ediel_sol  =         0.00000000
  free energy    TOTEN  =        -7.68423939 eV

  energy without entropy =       -7.68365027  energy(sigma->0) =       -7.68394483

 average (electrostatic) potential at core
  the test charge radii are     1.0894
  (the norm of the test charge is              1.0000)
       1-102.1236       2-102.1236

 E-fermi :   4.7541     XC(G=0):  -8.5458     alpha+bet : -9.8056

 val. band max:        4.7258608798   @ k =   0.5000   0.0000   0.0000
 cond. band min:       4.8206362871   @ k =   0.3750  -0.0000   0.0000
 fundamental gap:      0.0947754073
 Fermi energy:         4.7540611326

 k-point     1 :       0.0000    0.0000    0.0000
  band No.  band energies     occupation
      1     -16.6581      2.00000
      2     -16.6581      2.00000
      3     -16.6581      2.00000
      4     -16.6094      2.00000
      5     -16.6094      2.00000
      6     -16.3561      2.00000
      7     -16.3560      2.00000
      8     -16.3560      2.00000
      9     -16.3546      2.00000
     10     -16.3546      2.00000
     11      -5.2480      2.00000
     12       3.7173      2.00000
     13       4.9580      0.00000
     14       4.9580      0.00000
     15       4.9581      0.00000
     16       7.0177      0.00000
     17       7.0177      0.00000
     18       7.0178      0.00000
     19       9.8355      0.00000
     20      12.6544      0.00000
     21      12.6544      0.00000
     22      13.1555      0.00000
     23      13.1555      0.00000
     24      13.1555      0.00000
     25      15.5387      0.00000
     26      22.3126      0.00000
     27      22.3127      0.00000
     28      22.3127      0.00000
     29      24.2518      0.00000
     30      24.2518      0.00000
     31      24.2518      0.00000
     32      25.4594      0.00000
     33      25.4594      0.00000
     34      25.4594      0.00000
     35      25.7851      0.00000
     36      25.7851      0.00000
     37      29.6850      0.00000
     38      30.4048      0.00000
     39      31.5814      0.00000
     40      31.5814      0.00000
     41      31.5815      0.00000
     42      32.0228      0.00000
     43      32.0228      0.00000
     44      32.0229      0.00000
     45      32.6432      0.00000
     46      32.6434      0.00000
     47      32.6434      0.00000
     48      35.2792      0.00000

[...]

 k-point    29 :      -0.2500    0.5000    0.2500
  band No.  band energies     occupation
      1     -16.7143      2.00000
      2     -16.7142      2.00000
      3     -16.5420      2.00000
      4     -16.5420      2.00000
      5     -16.4867      2.00000
      6     -16.4867      2.00000
      7     -16.4512      2.00000
      8     -16.4511      2.00000
      9     -16.2822      2.00000
     10     -16.2822      2.00000
     11      -2.3521      2.00000
     12      -2.3521      2.00000
     13       2.1358      2.00000
     14       2.1359      2.00000
     15       8.0705      0.00000
     16       8.0705      0.00000
     17       8.8801      0.00000
     18       8.8801      0.00000
     19      13.4826      0.00000
     20      13.4827      0.00000
     21      14.7749      0.00000
     22      14.7749      0.00000
     23      17.4309      0.00000
     24      17.4309      0.00000
     25      17.5977      0.00000
     26      17.5978      0.00000
     27      19.9801      0.00000
     28      19.9801      0.00000
     29      21.0925      0.00000
     30      21.0925      0.00000
     31      22.8948      0.00000
     32      22.8948      0.00000
     33      23.5575      0.00000
     34      23.5575      0.00000
     35      23.9558      0.00000
     36      23.9558      0.00000
     37      24.5686      0.00000
     38      24.5686      0.00000
     39      29.5438      0.00000
     40      29.5438      0.00000
     41      29.7436      0.00000
     42      29.7436      0.00000
     43      32.2055      0.00000
     44      32.2055      0.00000
     45      33.1970      0.00000
     46      33.1970      0.00000
     47      35.4222      0.00000
     48      35.4223      0.00000

 soft charge-density along one line, spin component           1
         0         1         2         3         4         5         6         7         8         9
 total charge-density along one line

------------------------ aborting loop because EDIFF is reached ----------------------------------------

  FORCE on cell =-STRESS in cart. coord.  units (eV):
  Direction    XX          YY          ZZ          XY          YZ          ZX
  Alpha Z    60.76521    60.76521    60.76521
  Ewald    -761.39758  -761.39758  -761.39758    -0.00000    -0.00000    -0.00000
  Hartree   426.40222   426.40222   426.40222     0.00000     0.00000     0.00000
  E(xc)    -140.94251  -140.94251  -140.94247     0.00001     0.00002     0.00003
  Local    -270.75542  -270.75545  -270.75528     0.00005     0.00008     0.00012
  n-local   135.05662   138.81317   145.93514    -1.75087    -1.01781    -0.02329
  augment   359.89749   359.89739   359.89788     0.00014     0.00024     0.00033
  Kinetic   181.38661   185.05287   191.23595    -0.56319     0.06822    -0.16312
  Fock        0.00000     0.00000     0.00000     0.00000     0.00000     0.00000
  Total      -0.20366    -0.20366    -0.20366     0.00000     0.00000    -0.00000
  in kB      -4.42638    -4.42638    -4.42638     0.00000     0.00000    -0.00000

 VOLUME and BASIS-vectors are now :
  energy-cutoff  :      313.41
  volume of cell :       73.72
      direct lattice vectors                 reciprocal lattice vectors
     4.075922582  0.000000000  2.353235000     0.245343227 -0.086741930  0.000000000
     1.358640861  3.842816663  2.353235000     0.000000000  0.260225789  0.000000000
     0.000000000  0.000000000  4.706470000    -0.122671614 -0.086741930  0.212473467

  length of vectors
     4.706470000  4.706470000  4.706470000     0.260225789  0.260225789  0.260225789

 FORCES acting on ions
    electron-ion (+dipol)            ewald-force                    non-local-force                 convergence-correction
   -.268E-05 -.189E-05 -.573E-05   0.333E-13 0.411E-13 0.111E-12   -.250E-16 -.332E-16 -.768E-16   0.753E-08 0.532E-08 0.130E-07
   0.268E-05 0.189E-05 0.573E-05   -.332E-13 -.414E-13 -.110E-12   0.336E-16 0.375E-16 0.436E-16   -.753E-08 -.532E-08 -.130E-07
   0.745E-12 0.438E-12 0.162E-12   0.123E-15 -.300E-15 0.876E-15   0.857E-17 0.438E-17 -.332E-16   -.122E-12 0.216E-13 0.628E-14

 POSITION                                       TOTAL-FORCE (eV/Angst)
      0.00000      0.00000      0.00000         0.000000      0.000000      0.000000
      1.35864      0.96070      2.35324        -0.000000     -0.000000     -0.000000
    total drift:                                0.000000      0.000000      0.000000

  FREE ENERGIE OF THE ION-ELECTRON SYSTEM (eV)
  free  energy   TOTEN  =        -7.68423939 eV

  energy  without entropy=       -7.68365027  energy(sigma->0) =       -7.68394483

 writing wavefunctions