 vasp.6.4.3 19Mar24 (build Jun 26 2024 13:02:28) complex

 executed on             LinuxIFC date 2025.08.08  18:55:40

 INCAR:
   ENCUT = 403.3822
   IBRION = -1
   ISMEAR = 0
   ISYM = 2
   LCHARG = True
   LWAVE = True
   SIGMA = 0.05
   SYSTEM = Ge

 POTCAR:  PAW_PBE Ge_d 03Jul2007
|           W    W    AA    RRRRR   N    N  II  N    N   GGGG   !!!           |
|           W    W   A  A   R    R  NN   N  II  NN   N  G    G  !!!           |
|           W    W  A    A  R    R  N N  N  II  N N  N  G       !!!           |
|           W WW W  AAAAAA  RRRRR   N  N N  II  N  N N  G  GGG   !            |
|           WW  WW  A    A  R   R   N   NN  II  N   NN  G    G                |
|           W    W  A    A  R    R  N    N  II  N    N   GGGG   !!!           |
|     For optimal performance we recommend to set                             |
|       NCORE = 2 up to number-of-cores-per-socket                            |
|     This setting can greatly improve the performance of VASP for DFT.       |
|     The default, NCORE=1 might be grossly inefficient on modern             |
|     multi-core architectures or massively parallel machines. Do your        |
|     Unfortunately you need to use the default for GW and RPA                |
|     calculations (for HF NCORE is supported but not extensively tested      |
|     yet).                                                                   |

 POTCAR:  PAW_PBE Ge_d 03Jul2007
   VRHFIN =Ge: 3d4s4p

   TITEL  = PAW_PBE Ge_d 03Jul2007
   POMASS =   72.610; ZVAL   =   14.000    mass and valenz
   ENMAX  =  310.294; ENMIN  =  232.720 eV

PAW_PBE Ge_d 03Jul2007                  :

 POSCAR: Ge2
  positions in direct lattice

 exchange-correlation table for PE
   RHO(1)=    0.500       N(1)  =     2000
   RHO(2)=  100.500       N(2)  =     4000

 ion  position               nearest neighbor table
   1  0.000  0.000  0.000-   2 2.49   2 2.49   2 2.49   2 2.49
   2  0.250  0.250  0.250-   1 2.49   1 2.49   1 2.49   1 2.49

  LATTYP: Found a face centered cubic cell.
 ALAT       =     5.7617747537

  Lattice vectors:

 A1 = (   3.5283520398,   0.0000000000,   2.0370950000)
 A2 = (   1.1761173466,   3.3265622050,   2.0370950000)
 A3 = (   0.0000000000,   0.0000000000,   4.0741900000)

Analysis of symmetry for initial positions (statically):
 Subroutine PRICEL returns:
 Original cell was already a primitive cell.

 Routine SETGRP: Setting up the symmetry group for a
 face centered cubic supercell.

 Subroutine GETGRP returns: Found 48 space group operations
 (whereof 24 operations were pure point group operations)
 out of a pool of 48 trial point group operations.

The static configuration has the point symmetry T_d .
 The point group associated with its full space group is O_h .

Analysis of symmetry for dynamics (positions and initial velocities):
 Subroutine PRICEL returns:
 Original cell was already a primitive cell.

 Routine SETGRP: Setting up the symmetry group for a
 face centered cubic supercell.

 Subroutine GETGRP returns: Found 48 space group operations
 (whereof 24 operations were pure point group operations)
 out of a pool of 48 trial point group operations.

The dynamic configuration has the point symmetry T_d .
 The point group associated with its full space group is O_h .

 Subroutine INISYM returns: Found 48 space group operations
 (whereof 24 operations are pure point group operations),
 and found     1 'primitive' translations

                                     Primitive cell

  volume of cell :      47.8199

  direct lattice vectors                    reciprocal lattice vectors
     3.528352040  0.000000000  2.037095000     0.283418431 -0.100203547  0.000000000
     1.176117347  3.326562205  2.037095000     0.000000000  0.300610642  0.000000000
     0.000000000  0.000000000  4.074190000    -0.141709216 -0.100203547  0.245447561

  length of vectors
     4.074190000  4.074190000  4.074190000     0.300610642  0.300610642  0.300610642

  position of ions in fractional coordinates (direct lattice)
     0.000000000  0.000000000  0.000000000
     0.250000000  0.250000000  0.250000000

  ion indices of the primitive-cell ions
   primitive index   ion index
                 1           1
                 2           2

 KPOINTS: Automatic kpoint scheme

Automatic generation of k-mesh.
 Grid dimensions read from file:
 generate k-points for:   12   12   12

 Generating k-lattice:

  Cartesian coordinates                     Fractional coordinates (reciprocal lattice)
     0.023618203 -0.008350296  0.000000000     0.083333333  0.000000000  0.000000000
     0.000000000  0.025050887  0.000000000     0.000000000  0.083333333  0.000000000
    -0.011809101 -0.008350296  0.020453963     0.000000000  0.000000000  0.083333333

  Length of vectors
     0.025050887  0.025050887  0.025050887

  Shift w.r.t. Gamma in fractional coordinates (k-lattice)
     0.000000000  0.000000000  0.000000000

 Subroutine IBZKPT returns following result:

 Found     72 irreducible k-points:

 Following reciprocal coordinates:
            Coordinates               Weight
  0.000000  0.000000  0.000000      1.000000
  0.083333  0.000000  0.000000      8.000000
  0.166667  0.000000  0.000000      8.000000
  0.250000  0.000000  0.000000      8.000000
  0.333333 -0.000000  0.000000      8.000000
  0.416667  0.000000  0.000000      8.000000
  0.500000  0.000000  0.000000      4.000000
  0.083333  0.083333  0.000000      6.000000
  0.166667  0.083333  0.000000     24.000000
  0.250000  0.083333  0.000000     24.000000
  0.333333  0.083333  0.000000     24.000000
  0.416667  0.083333  0.000000     24.000000
  0.500000  0.083333  0.000000     24.000000
 -0.416667  0.083333  0.000000     24.000000
 -0.333333  0.083333  0.000000     24.000000
 -0.250000  0.083333  0.000000     24.000000
 -0.166667  0.083333  0.000000     24.000000
 -0.083333  0.083333  0.000000     12.000000
  0.166667  0.166667  0.000000      6.000000
  0.250000  0.166667  0.000000     24.000000
  0.333333  0.166667  0.000000     24.000000
  0.416667  0.166667  0.000000     24.000000
  0.500000  0.166667  0.000000     24.000000
 -0.416667  0.166667  0.000000     24.000000
 -0.333333  0.166667  0.000000     24.000000
 -0.250000  0.166667  0.000000     24.000000
 -0.166667  0.166667  0.000000     12.000000
  0.250000  0.250000  0.000000      6.000000
  0.333333  0.250000  0.000000     24.000000
  0.416667  0.250000  0.000000     24.000000
  0.500000  0.250000  0.000000     24.000000
 -0.416667  0.250000  0.000000     24.000000
 -0.333333  0.250000  0.000000     24.000000
 -0.250000  0.250000  0.000000     12.000000
  0.333333  0.333333  0.000000      6.000000
  0.416667  0.333333  0.000000     24.000000
  0.500000  0.333333  0.000000     24.000000
 -0.416667  0.333333  0.000000     24.000000
 -0.333333  0.333333  0.000000     12.000000
  0.416667  0.416667  0.000000      6.000000
  0.500000  0.416667  0.000000     24.000000
 -0.416667  0.416667  0.000000     12.000000
  0.500000  0.500000  0.000000      3.000000
  0.250000  0.166667  0.083333     24.000000
  0.333333  0.166667  0.083333     48.000000
  0.416667  0.166667  0.083333     48.000000
  0.500000  0.166667  0.083333     48.000000
 -0.416667  0.166667  0.083333     24.000000
  0.333333  0.250000  0.083333     24.000000
  0.416667  0.250000  0.083333     48.000000
  0.500000  0.250000  0.083333     48.000000
 -0.416667  0.250000  0.083333     48.000000
 -0.333333  0.250000  0.083333     48.000000
 -0.250000  0.250000  0.083333     48.000000
 -0.166667  0.250000  0.083333     24.000000
  0.416667  0.333333  0.083333     24.000000
  0.500000  0.333333  0.083333     48.000000
 -0.416667  0.333333  0.083333     48.000000
 -0.333333  0.333333  0.083333     48.000000
 -0.250000  0.333333  0.083333     24.000000
  0.500000  0.416667  0.083333     24.000000
 -0.416667  0.416667  0.083333     48.000000
 -0.333333  0.416667  0.083333     24.000000
 -0.416667  0.500000  0.083333     12.000000
  0.500000  0.333333  0.166667     24.000000
 -0.416667  0.333333  0.166667     48.000000
 -0.333333  0.333333  0.166667     24.000000
 -0.416667  0.416667  0.166667     24.000000
 -0.333333  0.416667  0.166667     48.000000
 -0.250000  0.416667  0.166667     24.000000
 -0.333333  0.500000  0.166667     12.000000
 -0.250000  0.500000  0.250000      6.000000

 Following cartesian coordinates:
            Coordinates               Weight
  0.000000  0.000000  0.000000      1.000000
  0.023618 -0.008350  0.000000      8.000000
  0.047236 -0.016701  0.000000      8.000000
  0.070855 -0.025051  0.000000      8.000000
  0.094473 -0.033401  0.000000      8.000000
  0.118091 -0.041751  0.000000      8.000000
  0.141709 -0.050102  0.000000      4.000000
  0.023618  0.016701  0.000000      6.000000
  0.047236  0.008350  0.000000     24.000000
  0.070855  0.000000  0.000000     24.000000
  0.094473 -0.008350  0.000000     24.000000
  0.118091 -0.016701  0.000000     24.000000
  0.141709 -0.025051  0.000000     24.000000
 -0.118091  0.066802  0.000000     24.000000
 -0.094473  0.058452  0.000000     24.000000
 -0.070855  0.050102  0.000000     24.000000
 -0.047236  0.041751  0.000000     24.000000
 -0.023618  0.033401  0.000000     12.000000
  0.047236  0.033401  0.000000      6.000000
  0.070855  0.025051  0.000000     24.000000
  0.094473  0.016701  0.000000     24.000000
  0.118091  0.008350  0.000000     24.000000
  0.141709 -0.000000  0.000000     24.000000
 -0.118091  0.091853  0.000000     24.000000
 -0.094473  0.083503  0.000000     24.000000
 -0.070855  0.075153  0.000000     24.000000
 -0.047236  0.066802  0.000000     12.000000
  0.070855  0.050102  0.000000      6.000000
  0.094473  0.041751  0.000000     24.000000
  0.118091  0.033401  0.000000     24.000000
  0.141709  0.025051  0.000000     24.000000
 -0.118091  0.116904  0.000000     24.000000
 -0.094473  0.108554  0.000000     24.000000
 -0.070855  0.100204  0.000000     12.000000
  0.094473  0.066802  0.000000      6.000000
  0.118091  0.058452  0.000000     24.000000
  0.141709  0.050102  0.000000     24.000000
 -0.118091  0.141955  0.000000     24.000000
 -0.094473  0.133605  0.000000     12.000000
  0.118091  0.083503  0.000000      6.000000
  0.141709  0.075153  0.000000     24.000000
 -0.118091  0.167006  0.000000     12.000000
  0.141709  0.100204  0.000000      3.000000
  0.059046  0.016701  0.020454     24.000000
  0.082664  0.008350  0.020454     48.000000
  0.106282 -0.000000  0.020454     48.000000
  0.129900 -0.008350  0.020454     48.000000
 -0.129900  0.083503  0.020454     24.000000
  0.082664  0.033401  0.020454     24.000000
  0.106282  0.025051  0.020454     48.000000
  0.129900  0.016701  0.020454     48.000000
 -0.129900  0.108554  0.020454     48.000000
 -0.106282  0.100204  0.020454     48.000000
 -0.082664  0.091853  0.020454     48.000000
 -0.059046  0.083503  0.020454     24.000000
  0.106282  0.050102  0.020454     24.000000
  0.129900  0.041751  0.020454     48.000000
 -0.129900  0.133605  0.020454     48.000000
 -0.106282  0.125254  0.020454     48.000000
 -0.082664  0.116904  0.020454     24.000000
  0.129900  0.066802  0.020454     24.000000
 -0.129900  0.158656  0.020454     48.000000
[...]
   0.25000000  0.25000000  0.00000000       0.003
   0.33333333  0.25000000  0.00000000       0.014
   0.41666667  0.25000000  0.00000000       0.014
   0.50000000  0.25000000  0.00000000       0.014
  -0.41666667  0.25000000  0.00000000       0.014
  -0.33333333  0.25000000  0.00000000       0.014
  -0.25000000  0.25000000  0.00000000       0.007
   0.33333333  0.33333333  0.00000000       0.003
   0.41666667  0.33333333  0.00000000       0.014
   0.50000000  0.33333333  0.00000000       0.014
  -0.41666667  0.33333333  0.00000000       0.014
  -0.33333333  0.33333333  0.00000000       0.007
   0.41666667  0.41666667  0.00000000       0.003
   0.50000000  0.41666667  0.00000000       0.014
  -0.41666667  0.41666667  0.00000000       0.007
   0.50000000  0.50000000  0.00000000       0.002
   0.25000000  0.16666667  0.08333333       0.014
   0.33333333  0.16666667  0.08333333       0.028
   0.41666667  0.16666667  0.08333333       0.028
   0.50000000  0.16666667  0.08333333       0.028
  -0.41666667  0.16666667  0.08333333       0.014
   0.33333333  0.25000000  0.08333333       0.014
   0.41666667  0.25000000  0.08333333       0.028
   0.50000000  0.25000000  0.08333333       0.028
  -0.41666667  0.25000000  0.08333333       0.028
  -0.33333333  0.25000000  0.08333333       0.028
  -0.25000000  0.25000000  0.08333333       0.028
  -0.16666667  0.25000000  0.08333333       0.014
   0.41666667  0.33333333  0.08333333       0.014
   0.50000000  0.33333333  0.08333333       0.028
  -0.41666667  0.33333333  0.08333333       0.028
  -0.33333333  0.33333333  0.08333333       0.028
  -0.25000000  0.33333333  0.08333333       0.014
   0.50000000  0.41666667  0.08333333       0.014
  -0.41666667  0.41666667  0.08333333       0.028
  -0.33333333  0.41666667  0.08333333       0.014
  -0.41666667  0.50000000  0.08333333       0.007
   0.50000000  0.33333333  0.16666667       0.014
  -0.41666667  0.33333333  0.16666667       0.028
  -0.33333333  0.33333333  0.16666667       0.014
  -0.41666667  0.41666667  0.16666667       0.014
  -0.33333333  0.41666667  0.16666667       0.028
  -0.25000000  0.41666667  0.16666667       0.014
  -0.33333333  0.50000000  0.16666667       0.007
  -0.25000000  0.50000000  0.25000000       0.003

 position of ions in fractional coordinates (direct lattice)
   0.00000000  0.00000000  0.00000000
   0.25000000  0.25000000  0.25000000

 position of ions in cartesian coordinates  (Angst):
   0.00000000  0.00000000  0.00000000
   1.17611735  0.83164055  2.03709500

 k-point     1 :   0.0000 0.0000 0.0000  plane waves:     893
 k-point     2 :   0.0833 0.0000 0.0000  plane waves:     893
 k-point     3 :   0.1667 0.0000 0.0000  plane waves:     899
 k-point     4 :   0.2500 0.0000 0.0000  plane waves:     890
 k-point     5 :   0.3333-0.0000 0.0000  plane waves:     878
 k-point     6 :   0.4167 0.0000 0.0000  plane waves:     878
 k-point     7 :   0.5000 0.0000 0.0000  plane waves:     886
 k-point     8 :   0.0833 0.0833 0.0000  plane waves:     889
 k-point     9 :   0.1667 0.0833 0.0000  plane waves:     894
 k-point    10 :   0.2500 0.0833 0.0000  plane waves:     885
 k-point    11 :   0.3333 0.0833 0.0000  plane waves:     880
 k-point    12 :   0.4167 0.0833 0.0000  plane waves:     878
 k-point    13 :   0.5000 0.0833 0.0000  plane waves:     881
 k-point    14 :  -0.4167 0.0833 0.0000  plane waves:     876
 k-point    15 :  -0.3333 0.0833 0.0000  plane waves:     878
 k-point    16 :  -0.2500 0.0833 0.0000  plane waves:     882
 k-point    17 :  -0.1667 0.0833 0.0000  plane waves:     897
 k-point    18 :  -0.0833 0.0833 0.0000  plane waves:     899
 k-point    19 :   0.1667 0.1667 0.0000  plane waves:     877
 k-point    20 :   0.2500 0.1667 0.0000  plane waves:     878
 k-point    21 :   0.3333 0.1667 0.0000  plane waves:     875
 k-point    22 :   0.4167 0.1667 0.0000  plane waves:     881
 k-point    23 :   0.5000 0.1667 0.0000  plane waves:     886
 k-point    24 :  -0.4167 0.1667 0.0000  plane waves:     868
 k-point    25 :  -0.3333 0.1667 0.0000  plane waves:     874
 k-point    26 :  -0.2500 0.1667 0.0000  plane waves:     886
 k-point    27 :  -0.1667 0.1667 0.0000  plane waves:     887
 k-point    28 :   0.2500 0.2500 0.0000  plane waves:     881
 k-point    29 :   0.3333 0.2500 0.0000  plane waves:     873
 k-point    30 :   0.4167 0.2500 0.0000  plane waves:     882
 k-point    31 :   0.5000 0.2500 0.0000  plane waves:     875
 k-point    32 :  -0.4167 0.2500 0.0000  plane waves:     877
 k-point    33 :  -0.3333 0.2500 0.0000  plane waves:     876
 k-point    34 :  -0.2500 0.2500 0.0000  plane waves:     883
 k-point    35 :   0.3333 0.3333 0.0000  plane waves:     866
 k-point    36 :   0.4167 0.3333 0.0000  plane waves:     875
 k-point    37 :   0.5000 0.3333 0.0000  plane waves:     879
 k-point    38 :  -0.4167 0.3333 0.0000  plane waves:     878
 k-point    39 :  -0.3333 0.3333 0.0000  plane waves:     873
 k-point    40 :   0.4167 0.4167 0.0000  plane waves:     886
 k-point    41 :   0.5000 0.4167 0.0000  plane waves:     884
 k-point    42 :  -0.4167 0.4167 0.0000  plane waves:     878
 k-point    43 :   0.5000 0.5000 0.0000  plane waves:     894
 k-point    44 :   0.2500 0.1667 0.0833  plane waves:     889
 k-point    45 :   0.3333 0.1667 0.0833  plane waves:     876
 k-point    46 :   0.4167 0.1667 0.0833  plane waves:     877
 k-point    47 :   0.5000 0.1667 0.0833  plane waves:     878
 k-point    48 :  -0.4167 0.1667 0.0833  plane waves:     876
 k-point    49 :   0.3333 0.2500 0.0833  plane waves:     874
 k-point    50 :   0.4167 0.2500 0.0833  plane waves:     874
 k-point    51 :   0.5000 0.2500 0.0833  plane waves:     880
 k-point    52 :  -0.4167 0.2500 0.0833  plane waves:     877
 k-point    53 :  -0.3333 0.2500 0.0833  plane waves:     873
 k-point    54 :  -0.2500 0.2500 0.0833  plane waves:     880
 k-point    55 :  -0.1667 0.2500 0.0833  plane waves:     883
 k-point    56 :   0.4167 0.3333 0.0833  plane waves:     871
 k-point    57 :   0.5000 0.3333 0.0833  plane waves:     878
 k-point    58 :  -0.4167 0.3333 0.0833  plane waves:     878
 k-point    59 :  -0.3333 0.3333 0.0833  plane waves:     879
 k-point    60 :  -0.2500 0.3333 0.0833  plane waves:     878
 k-point    61 :   0.5000 0.4167 0.0833  plane waves:     877
 k-point    62 :  -0.4167 0.4167 0.0833  plane waves:     880
 k-point    63 :  -0.3333 0.4167 0.0833  plane waves:     875
 k-point    64 :  -0.4167 0.5000 0.0833  plane waves:     888
 k-point    65 :   0.5000 0.3333 0.1667  plane waves:     878
 k-point    66 :  -0.4167 0.3333 0.1667  plane waves:     879
 k-point    67 :  -0.3333 0.3333 0.1667  plane waves:     884
 k-point    68 :  -0.4167 0.4167 0.1667  plane waves:     886
 k-point    69 :  -0.3333 0.4167 0.1667  plane waves:     884
 k-point    70 :  -0.2500 0.4167 0.1667  plane waves:     882
 k-point    71 :  -0.3333 0.5000 0.1667  plane waves:     878
 k-point    72 :  -0.2500 0.5000 0.2500  plane waves:     876

 maximum and minimum number of plane-waves per node :       899      866

 maximum number of plane-waves:       899
 maximum index in each direction:
   IXMAX=    7   IYMAX=    6   IZMAX=    6
   IXMIN=   -7   IYMIN=   -7   IZMIN=   -6

 serial   3D FFT for wavefunctions
 parallel 3D FFT for charge:
    minimum data exchange during FFTs selected (reduces bandwidth)

 Broyden mixing: mesh for mixing (old mesh)
   NGX = 13   NGY = 13   NGZ = 13
  (NGX  = 40   NGY  = 40   NGZ  = 40)
  gives a total of   2197 points

 charge density for first step will be calculated from the start-wavefunctions

 Maximum index for augmentation-charges          349 (set IRDMAX)

 initial charge from wavefunction
 First call to EWALD:  gamma=   0.488
 Maximum number of real-space cells 3x 3x 3
 Maximum number of reciprocal cells 3x 3x 3

--------------------------------------- Ionic step        1  -------------------------------------------

--------------------------------------- Iteration      1(   1)  ---------------------------------------

 eigenvalue-minimisations  :  9456
 total energy-change (2. order) :-0.9035213E+01  (-0.4941738E-05)
 number of electron      27.9999769 magnetization
 augmentation part       16.8579431 magnetization

 Broyden mixing:
  rms(total) = 0.19322E-03    rms(broyden)= 0.19320E-03
  rms(prec ) = 0.64348E-03
  weight for this iteration     100.00

 Free energy of the ion-electron system (eV)
  alpha Z        PSCENC =       122.53498757
  Ewald energy   TEWEN  =     -2638.67903889
  -Hartree energ DENC   =     -1545.17646601
  -exchange      EXHF   =         0.00000000
  -V(xc)+E(xc)   XCENC  =       145.53343710
  PAW double counting   =      4425.35968652    -5300.07536110
  entropy T*S    EENTRO =        -0.00009670
  eigenvalues    EBANDS =      -410.97956815
  atomic energy  EATOM  =      5192.44720712
  Solvation  Ediel_sol  =         0.00000000
  free energy    TOTEN  =        -9.03521255 eV

  energy without entropy =       -9.03511585  energy(sigma->0) =       -9.03516420

--------------------------------------- Iteration      1(   2)  ---------------------------------------

 eigenvalue-minimisations  :  3648
 total energy-change (2. order) :-0.2963807E-06  (-0.6555329E-07)
 number of electron      27.9999769 magnetization
 augmentation part       16.8579431 magnetization

 Free energy of the ion-electron system (eV)
  alpha Z        PSCENC =       122.53498757
  Ewald energy   TEWEN  =     -2638.67903889
  -Hartree energ DENC   =     -1545.19009055
  -exchange      EXHF   =         0.00000000
  -V(xc)+E(xc)   XCENC  =       145.53393083
  PAW double counting   =      4425.40150701    -5300.12931586
  entropy T*S    EENTRO =        -0.00009667
  eigenvalues    EBANDS =      -410.95430341
  atomic energy  EATOM  =      5192.44720712
  Solvation  Ediel_sol  =         0.00000000
  free energy    TOTEN  =        -9.03521285 eV

  energy without entropy =       -9.03511617  energy(sigma->0) =       -9.03516451

 average (electrostatic) potential at core
  the test charge radii are     0.9911
  (the norm of the test charge is              1.0000)
       1 -74.8140       2 -74.8140

 E-fermi :   4.4639     XC(G=0):  -9.6684     alpha+bet : -9.8618

 val. band max:        4.3179318110   @ k =   0.0833   0.0000   0.0000
 cond. band min:       4.4721223944   @ k =   0.0000   0.0000   0.0000
 fundamental gap:      0.1541905835
 Fermi energy:         4.4639365243

 k-point     1 :       0.0000    0.0000    0.0000
  band No.  band energies     occupation
      1     -20.2675      2.00000
      2     -20.2675      2.00000
      3     -20.2675      2.00000
      4     -20.2358      2.00000
      5     -20.2358      2.00000
      6     -20.0528      2.00000
      7     -20.0528      2.00000
      8     -20.0528      2.00000
      9     -20.0438      2.00000
     10     -20.0438      2.00000
     11      -7.8950      2.00000
     12       4.0166      2.00000
     13       4.4721      0.81690
     14       4.4721      0.81690
     15       4.4722      0.81485
     16       7.0015      0.00000
     17       7.0015      0.00000
     18       7.0016      0.00000
     19      10.7679      0.00000
     20      13.8122      0.00000
     21      13.8122      0.00000
     22      15.1406      0.00000
     23      15.1407      0.00000
     24      15.1407      0.00000
     25      18.0582      0.00000
     26      28.6201      0.00000
     27      28.6201      0.00000
     28      28.6201      0.00000
     29      29.8739      0.00000
     30      29.8741      0.00000
     31      29.8741      0.00000
     32      30.0928      0.00000
     33      30.0928      0.00000
     34      30.0928      0.00000
     35      31.1711      0.00000
     36      31.1711      0.00000
     37      37.5424      0.00000
     38      41.9525      0.00000
     39      42.5553      0.00000
     40      42.5554      0.00000
     41      42.5554      0.00000
     42      42.7774      0.00000
     43      42.7774      0.00000
     44      42.7774      0.00000
     45      43.8659      0.00000
     46      43.8659      0.00000
     47      43.8659      0.00000
     48      43.9151      0.00000

[...]

 k-point    72 :      -0.2500    0.5000    0.2500
  band No.  band energies     occupation
      1     -20.3087      2.00000
      2     -20.3086      2.00000
      3     -20.1853      2.00000
      4     -20.1852      2.00000
      5     -20.1438      2.00000
      6     -20.1438      2.00000
      7     -20.1162      2.00000
      8     -20.1162      2.00000
      9     -19.9961      2.00000
     10     -19.9961      2.00000
     11      -4.1331      2.00000
     12      -4.1330      2.00000
     13       0.8230      2.00000
     14       0.8231      2.00000
     15       8.5792      0.00000
     16       8.5793      0.00000
     17       9.1573      0.00000
     18       9.1573      0.00000
     19      15.0847      0.00000
     20      15.0847      0.00000
     21      17.0802      0.00000
     22      17.0802      0.00000
     23      20.6921      0.00000
     24      20.6921      0.00000
     25      21.2303      0.00000
     26      21.2304      0.00000
     27      23.7683      0.00000
     28      23.7683      0.00000
     29      25.4797      0.00000
     30      25.4798      0.00000
     31      27.5463      0.00000
     32      27.5463      0.00000
     33      29.8487      0.00000
     34      29.8487      0.00000
     35      29.8699      0.00000
     36      29.8699      0.00000
     37      30.5183      0.00000
     38      30.5183      0.00000
     39      37.5957      0.00000
     40      37.5958      0.00000
     41      37.7634      0.00000
     42      37.7634      0.00000
     43      42.0980      0.00000
     44      42.0980      0.00000
     45      42.4791      0.00000
     46      42.4791      0.00000
     47      45.4221      0.00000
     48      45.4221      0.00000

 soft charge-density along one line, spin component           1
         0         1         2         3         4         5         6         7         8         9
 total charge-density along one line

------------------------ aborting loop because EDIFF is reached ----------------------------------------

  FORCE on cell =-STRESS in cart. coord.  units (eV):
  Direction    XX          YY          ZZ          XY          YZ          ZX
  Alpha Z   122.53499   122.53499   122.53499
  Ewald    -879.56008  -879.56008  -879.56008     0.00000    -0.00000     0.00000
  Hartree   515.06923   515.06923   515.06923     0.00000     0.00000     0.00000
  E(xc)    -164.57358  -164.57357  -164.57363    -0.00002    -0.00003    -0.00004
  Local     -46.27282   -46.27325   -46.27113     0.00060     0.00104     0.00147
  n-local    53.16710    56.06285    60.92607    -1.27243    -0.98253    -0.04045
  augment   251.96682   251.96724   251.96515    -0.00059    -0.00102    -0.00145
  Kinetic   139.03509   142.66263   150.34449    -0.28237     0.40072    -0.28215
  Fock        0.00000     0.00000     0.00000     0.00000     0.00000     0.00000
  Total      -0.10271    -0.10271    -0.10271    -0.00000     0.00000     0.00000
  in kB      -3.44114    -3.44114    -3.44114    -0.00000     0.00000     0.00000

 VOLUME and BASIS-vectors are now :
  energy-cutoff  :      403.38
  volume of cell :       47.82
      direct lattice vectors                 reciprocal lattice vectors
     3.528352040  0.000000000  2.037095000     0.283418431 -0.100203547  0.000000000
     1.176117347  3.326562205  2.037095000     0.000000000  0.300610642  0.000000000
     0.000000000  0.000000000  4.074190000    -0.141709216 -0.100203547  0.245447561

  length of vectors
     4.074190000  4.074190000  4.074190000     0.300610642  0.300610642  0.300610642

 FORCES acting on ions
    electron-ion (+dipol)            ewald-force                    non-local-force                 convergence-correction
   0.321E-05 0.227E-05 -.236E-05   -.111E-14 -.111E-13 0.155E-13   -.617E-16 -.599E-16 -.130E-15   0.999E-09 0.707E-09 0.173E-08
   -.321E-05 -.227E-05 0.236E-05   0.201E-14 0.105E-13 -.131E-13   0.689E-16 0.595E-16 0.125E-15   -.999E-09 -.707E-09 -.173E-08
   0.957E-12 0.710E-12 0.244E-12   0.906E-15 -.622E-15 0.242E-14   0.725E-17 -.327E-18 -.524E-17   0.351E-13 0.348E-13 -.329E-12

 POSITION                                       TOTAL-FORCE (eV/Angst)
      0.00000      0.00000      0.00000         0.000000      0.000000      0.000000
      1.17612      0.83164      2.03709        -0.000000     -0.000000     -0.000000
    total drift:                                0.000000      0.000000     -0.000000

  FREE ENERGIE OF THE ION-ELECTRON SYSTEM (eV)
  free  energy   TOTEN  =        -9.03521285 eV

  energy  without entropy=       -9.03511617  energy(sigma->0) =       -9.03516451

 writing wavefunctions