 vasp.6.4.3 19Mar24 (build Jun 26 2024 13:02:28) complex

 executed on             LinuxIFC date 2025.08.08  18:24:14

 INCAR:
   ENCUT = 260.0
   IBRION = -1
   ISMEAR = 0
   ISYM = 2
   LCHARG = True
   LWAVE = True
   SIGMA = 0.05
   SYSTEM = Mg

 POTCAR:  PAW_PBE Mg 13Apr2007
|           W    W    AA    RRRRR   N    N  II  N    N   GGGG   !!!           |
|           W    W   A  A   R    R  NN   N  II  NN   N  G    G  !!!           |
|           W    W  A    A  R    R  N N  N  II  N N  N  G       !!!           |
|           W WW W  AAAAAA  RRRRR   N  N N  II  N  N N  G  GGG   !            |
|           WW  WW  A    A  R   R   N   NN  II  N   NN  G    G                |
|           W    W  A    A  R    R  N    N  II  N    N   GGGG   !!!           |
|     For optimal performance we recommend to set                             |
|       NCORE = 2 up to number-of-cores-per-socket                            |
|     This setting can greatly improve the performance of VASP for DFT.       |
|     The default, NCORE=1 might be grossly inefficient on modern             |
|     multi-core architectures or massively parallel machines. Do your        |
|     Unfortunately you need to use the default for GW and RPA                |
|     calculations (for HF NCORE is supported but not extensively tested      |
|     yet).                                                                   |

 POTCAR:  PAW_PBE Mg 13Apr2007
   VRHFIN =Mg: s2p0

   TITEL  = PAW_PBE Mg 13Apr2007
   POMASS =   24.305; ZVAL   =    2.000    mass and valenz
   ENMAX  =  200.000; ENMIN  =  100.000 eV

PAW_PBE Mg 13Apr2007                    :

 POSCAR: Mg2
  positions in direct lattice

 exchange-correlation table for PE
   RHO(1)=    0.500       N(1)  =     2000
   RHO(2)=  100.500       N(2)  =     4000

 ion  position               nearest neighbor table
   1  0.000  0.000  0.000-   2 3.18   2 3.18   2 3.18   2 3.18   2 3.18   2 3.18
   2  0.333  0.333  0.500-   1 3.18   1 3.18   1 3.18   1 3.18   1 3.18   1 3.18

  LATTYP: Found a hexagonal cell.
 ALAT       =     3.1940500000
 C/A-ratio  =     1.6192545514

  Lattice vectors:

 A1 = (  -1.5970250000,  -2.7661284410,   0.0000000000)
 A2 = (   3.1940500000,   0.0000000000,   0.0000000000)
 A3 = (   0.0000000000,   0.0000000000,   5.1719800000)

Analysis of symmetry for initial positions (statically):
 Subroutine PRICEL returns:
 Original cell was already a primitive cell.

 Routine SETGRP: Setting up the symmetry group for a
 hexagonal supercell.

 Subroutine GETGRP returns: Found 24 space group operations
 (whereof 12 operations were pure point group operations)
 out of a pool of 24 trial point group operations.

The static configuration has the point symmetry D_3h.
 The point group associated with its full space group is D_6h.

Analysis of symmetry for dynamics (positions and initial velocities):
 Subroutine PRICEL returns:
 Original cell was already a primitive cell.

 Routine SETGRP: Setting up the symmetry group for a
 hexagonal supercell.

 Subroutine GETGRP returns: Found 24 space group operations
 (whereof 12 operations were pure point group operations)
 out of a pool of 24 trial point group operations.

The dynamic configuration has the point symmetry D_3h.
 The point group associated with its full space group is D_6h.

 Subroutine INISYM returns: Found 24 space group operations
 (whereof 12 operations are pure point group operations),
 and found     1 'primitive' translations

                                     Primitive cell

  volume of cell :      45.6952

  direct lattice vectors                    reciprocal lattice vectors
     3.194050000  0.000000000  0.000000000     0.313082137 -0.180758056  0.000000000
     1.597025000  2.766128441  0.000000000     0.000000000  0.361516112  0.000000000
     0.000000000  0.000000000  5.171980000    -0.000000000 -0.000000000  0.193349549

  length of vectors
     3.194050000  3.194050000  5.171980000     0.361516112  0.361516112  0.193349549

  position of ions in fractional coordinates (direct lattice)
     0.000000000  0.000000000  0.000000000
     0.333333333  0.333333333  0.500000000

  ion indices of the primitive-cell ions
   primitive index   ion index
                 1           1
                 2           2

 KPOINTS: Automatic kpoint scheme

Automatic generation of k-mesh.
 Grid dimensions read from file:
 generate k-points for:   12   12   12

 Generating k-lattice:

  Cartesian coordinates                     Fractional coordinates (reciprocal lattice)
     0.026090178 -0.015063171  0.000000000     0.083333333  0.000000000  0.000000000
     0.000000000  0.030126343  0.000000000     0.000000000  0.083333333  0.000000000
    -0.000000000 -0.000000000  0.016112462    -0.000000000 -0.000000000  0.083333333

  Length of vectors
     0.030126343  0.030126343  0.016112462

  Shift w.r.t. Gamma in fractional coordinates (k-lattice)
     0.000000000  0.000000000  0.000000000

 Subroutine IBZKPT returns following result:

 Found    133 irreducible k-points:

 Following reciprocal coordinates:
            Coordinates               Weight
  0.000000  0.000000  0.000000      1.000000
  0.083333 -0.000000  0.000000      6.000000
  0.166667 -0.000000  0.000000      6.000000
  0.250000 -0.000000  0.000000      6.000000
  0.333333  0.000000  0.000000      6.000000
  0.416667 -0.000000  0.000000      6.000000
  0.500000 -0.000000  0.000000      3.000000
  0.166667  0.083333  0.000000      6.000000
  0.250000  0.083333  0.000000     12.000000
  0.333333  0.083333  0.000000     12.000000
  0.416667  0.083333  0.000000     12.000000
  0.500000  0.083333  0.000000     12.000000
  0.333333  0.166667  0.000000      6.000000
  0.416667  0.166667  0.000000     12.000000
  0.500000  0.166667  0.000000     12.000000
 -0.416667  0.166667  0.000000      6.000000
  0.500000  0.250000  0.000000      6.000000
 -0.416667  0.250000  0.000000     12.000000
 -0.333333  0.333333  0.000000      2.000000
  0.000000 -0.000000  0.083333      2.000000
  0.083333  0.000000  0.083333     12.000000
  0.166667 -0.000000  0.083333     12.000000
  0.250000 -0.000000  0.083333     12.000000
  0.333333  0.000000  0.083333     12.000000
  0.416667 -0.000000  0.083333     12.000000
  0.500000 -0.000000  0.083333      6.000000
  0.166667  0.083333  0.083333     12.000000
  0.250000  0.083333  0.083333     24.000000
  0.333333  0.083333  0.083333     24.000000
  0.416667  0.083333  0.083333     24.000000
  0.500000  0.083333  0.083333     24.000000
  0.333333  0.166667  0.083333     12.000000
  0.416667  0.166667  0.083333     24.000000
  0.500000  0.166667  0.083333     24.000000
 -0.416667  0.166667  0.083333     12.000000
  0.500000  0.250000  0.083333     12.000000
 -0.416667  0.250000  0.083333     24.000000
 -0.333333  0.333333  0.083333      4.000000
  0.000000 -0.000000  0.166667      2.000000
  0.083333 -0.000000  0.166667     12.000000
  0.166667 -0.000000  0.166667     12.000000
  0.250000 -0.000000  0.166667     12.000000
  0.333333  0.000000  0.166667     12.000000
  0.416667  0.000000  0.166667     12.000000
  0.500000 -0.000000  0.166667      6.000000
  0.166667  0.083333  0.166667     12.000000
  0.250000  0.083333  0.166667     24.000000
  0.333333  0.083333  0.166667     24.000000
  0.416667  0.083333  0.166667     24.000000
  0.500000  0.083333  0.166667     24.000000
  0.333333  0.166667  0.166667     12.000000
  0.416667  0.166667  0.166667     24.000000
  0.500000  0.166667  0.166667     24.000000
 -0.416667  0.166667  0.166667     12.000000
  0.500000  0.250000  0.166667     12.000000
 -0.416667  0.250000  0.166667     24.000000
 -0.333333  0.333333  0.166667      4.000000
  0.000000 -0.000000  0.250000      2.000000
  0.083333  0.000000  0.250000     12.000000
  0.166667 -0.000000  0.250000     12.000000
[...]
  0.333333  0.000000  0.500000      6.000000
  0.416667  0.000000  0.500000      6.000000
  0.500000 -0.000000  0.500000      3.000000
  0.166667  0.083333  0.500000      6.000000
  0.250000  0.083333  0.500000     12.000000
  0.333333  0.083333  0.500000     12.000000
  0.416667  0.083333  0.500000     12.000000
  0.500000  0.083333  0.500000     12.000000
  0.333333  0.166667  0.500000      6.000000
  0.416667  0.166667  0.500000     12.000000
  0.500000  0.166667  0.500000     12.000000
 -0.416667  0.166667  0.500000      6.000000
  0.500000  0.250000  0.500000      6.000000
 -0.416667  0.250000  0.500000     12.000000
 -0.333333  0.333333  0.500000      2.000000

 Following cartesian coordinates:
            Coordinates               Weight
  0.000000  0.000000  0.000000      1.000000
  0.026090 -0.015063  0.000000      6.000000
  0.052180 -0.030126  0.000000      6.000000
  0.078271 -0.045190  0.000000      6.000000
  0.104361 -0.060253  0.000000      6.000000
  0.130451 -0.075316  0.000000      6.000000
  0.156541 -0.090379  0.000000      3.000000
  0.052180  0.000000  0.000000      6.000000
  0.078271 -0.015063  0.000000     12.000000
  0.104361 -0.030126  0.000000     12.000000
  0.130451 -0.045190  0.000000     12.000000
  0.156541 -0.060253  0.000000     12.000000
  0.104361 -0.000000  0.000000      6.000000
  0.130451 -0.015063  0.000000     12.000000
  0.156541 -0.030126  0.000000     12.000000
 -0.130451  0.135569  0.000000      6.000000
  0.156541 -0.000000  0.000000      6.000000
 -0.130451  0.165695  0.000000     12.000000
 -0.104361  0.180758  0.000000      2.000000
 -0.000000 -0.000000  0.016112      2.000000
  0.026090 -0.015063  0.016112     12.000000
  0.052180 -0.030126  0.016112     12.000000
  0.078271 -0.045190  0.016112     12.000000
  0.104361 -0.060253  0.016112     12.000000
  0.130451 -0.075316  0.016112     12.000000
  0.156541 -0.090379  0.016112      6.000000
  0.052180  0.000000  0.016112     12.000000
  0.078271 -0.015063  0.016112     24.000000
  0.104361 -0.030126  0.016112     24.000000
  0.130451 -0.045190  0.016112     24.000000
  0.156541 -0.060253  0.016112     24.000000
  0.104361 -0.000000  0.016112     12.000000
  0.130451 -0.015063  0.016112     24.000000
  0.156541 -0.030126  0.016112     24.000000
 -0.130451  0.135569  0.016112     12.000000
  0.156541 -0.000000  0.016112     12.000000
 -0.130451  0.165695  0.016112     24.000000
 -0.104361  0.180758  0.016112      4.000000
 -0.000000 -0.000000  0.032225      2.000000
  0.026090 -0.015063  0.032225     12.000000
  0.052180 -0.030126  0.032225     12.000000
  0.078271 -0.045190  0.032225     12.000000
  0.104361 -0.060253  0.032225     12.000000
  0.130451 -0.075316  0.032225     12.000000
  0.156541 -0.090379  0.032225      6.000000
  0.052180  0.000000  0.032225     12.000000
  0.078271 -0.015063  0.032225     24.000000
  0.104361 -0.030126  0.032225     24.000000
  0.130451 -0.045190  0.032225     24.000000
  0.156541 -0.060253  0.032225     24.000000
  0.104361 -0.000000  0.032225     12.000000
  0.130451 -0.015063  0.032225     24.000000
  0.156541 -0.030126  0.032225     24.000000
 -0.130451  0.135569  0.032225     12.000000
  0.156541 -0.000000  0.032225     12.000000
 -0.130451  0.165695  0.032225     24.000000
 -0.104361  0.180758  0.032225      4.000000
 -0.000000 -0.000000  0.048337      2.000000
[...]
  -0.41666667  0.16666667  0.08333333       0.007
   0.50000000  0.25000000  0.08333333       0.007
  -0.41666667  0.25000000  0.08333333       0.014
  -0.33333333  0.33333333  0.08333333       0.002
   0.00000000 -0.00000000  0.16666667       0.001
   0.08333333 -0.00000000  0.16666667       0.007
   0.16666667 -0.00000000  0.16666667       0.007
   0.25000000 -0.00000000  0.16666667       0.007
   0.33333333  0.00000000  0.16666667       0.007
   0.41666667  0.00000000  0.16666667       0.007
   0.50000000 -0.00000000  0.16666667       0.003
   0.16666667  0.08333333  0.16666667       0.007
   0.25000000  0.08333333  0.16666667       0.014
   0.33333333  0.08333333  0.16666667       0.014
   0.41666667  0.08333333  0.16666667       0.014
   0.50000000  0.08333333  0.16666667       0.014
   0.33333333  0.16666667  0.16666667       0.007
   0.41666667  0.16666667  0.16666667       0.014
   0.50000000  0.16666667  0.16666667       0.014
  -0.41666667  0.16666667  0.16666667       0.007
   0.50000000  0.25000000  0.16666667       0.007
  -0.41666667  0.25000000  0.16666667       0.014
  -0.33333333  0.33333333  0.16666667       0.002
   0.00000000 -0.00000000  0.25000000       0.001
   0.08333333  0.00000000  0.25000000       0.007
   0.16666667 -0.00000000  0.25000000       0.007
[...]
   0.33333333  0.00000000  0.50000000       0.003
   0.41666667  0.00000000  0.50000000       0.003
   0.50000000 -0.00000000  0.50000000       0.002
   0.16666667  0.08333333  0.50000000       0.003
   0.25000000  0.08333333  0.50000000       0.007
   0.33333333  0.08333333  0.50000000       0.007
   0.41666667  0.08333333  0.50000000       0.007
   0.50000000  0.08333333  0.50000000       0.007
   0.33333333  0.16666667  0.50000000       0.003
   0.41666667  0.16666667  0.50000000       0.007
   0.50000000  0.16666667  0.50000000       0.007
  -0.41666667  0.16666667  0.50000000       0.003
   0.50000000  0.25000000  0.50000000       0.003
  -0.41666667  0.25000000  0.50000000       0.007
  -0.33333333  0.33333333  0.50000000       0.001

 position of ions in fractional coordinates (direct lattice)
   0.00000000  0.00000000  0.00000000
   0.33333333  0.33333333  0.50000000

 position of ions in cartesian coordinates  (Angst):
   0.00000000  0.00000000  0.00000000
   1.59702500  0.92204281  2.58599000

 k-point     1 :   0.0000 0.0000 0.0000  plane waves:     415
 k-point     2 :   0.0833-0.0000 0.0000  plane waves:     425
 k-point     3 :   0.1667-0.0000 0.0000  plane waves:     427
 k-point     4 :   0.2500-0.0000 0.0000  plane waves:     441
 k-point     5 :   0.3333 0.0000 0.0000  plane waves:     433
 k-point     6 :   0.4167-0.0000 0.0000  plane waves:     436
 k-point     7 :   0.5000-0.0000 0.0000  plane waves:     428
 k-point     8 :   0.1667 0.0833 0.0000  plane waves:     427
 k-point     9 :   0.2500 0.0833 0.0000  plane waves:     431
 k-point    10 :   0.3333 0.0833 0.0000  plane waves:     438
 k-point    11 :   0.4167 0.0833 0.0000  plane waves:     442
 k-point    12 :   0.5000 0.0833 0.0000  plane waves:     440
 k-point    13 :   0.3333 0.1667 0.0000  plane waves:     432
 k-point    14 :   0.4167 0.1667 0.0000  plane waves:     433
 k-point    15 :   0.5000 0.1667 0.0000  plane waves:     442
 k-point    16 :  -0.4167 0.1667 0.0000  plane waves:     436
 k-point    17 :   0.5000 0.2500 0.0000  plane waves:     432
 k-point    18 :  -0.4167 0.2500 0.0000  plane waves:     438
 k-point    19 :  -0.3333 0.3333 0.0000  plane waves:     438
 k-point    20 :   0.0000-0.0000 0.0833  plane waves:     415
 k-point    21 :   0.0833 0.0000 0.0833  plane waves:     424
 k-point    22 :   0.1667-0.0000 0.0833  plane waves:     427
 k-point    23 :   0.2500-0.0000 0.0833  plane waves:     437
 k-point    24 :   0.3333 0.0000 0.0833  plane waves:     440
 k-point    25 :   0.4167-0.0000 0.0833  plane waves:     439
 k-point    26 :   0.5000-0.0000 0.0833  plane waves:     434
 k-point    27 :   0.1667 0.0833 0.0833  plane waves:     425
 k-point    28 :   0.2500 0.0833 0.0833  plane waves:     431
 k-point    29 :   0.3333 0.0833 0.0833  plane waves:     433
 k-point    30 :   0.4167 0.0833 0.0833  plane waves:     437
 k-point    31 :   0.5000 0.0833 0.0833  plane waves:     441
 k-point    32 :   0.3333 0.1667 0.0833  plane waves:     432
 k-point    33 :   0.4167 0.1667 0.0833  plane waves:     431
 k-point    34 :   0.5000 0.1667 0.0833  plane waves:     437
 k-point    35 :  -0.4167 0.1667 0.0833  plane waves:     435
 k-point    36 :   0.5000 0.2500 0.0833  plane waves:     434
 k-point    37 :  -0.4167 0.2500 0.0833  plane waves:     440
 k-point    38 :  -0.3333 0.3333 0.0833  plane waves:     438
 k-point    39 :   0.0000-0.0000 0.1667  plane waves:     433
 k-point    40 :   0.0833-0.0000 0.1667  plane waves:     424
 k-point    41 :   0.1667-0.0000 0.1667  plane waves:     430
 k-point    42 :   0.2500-0.0000 0.1667  plane waves:     431
 k-point    43 :   0.3333 0.0000 0.1667  plane waves:     438
 k-point    44 :   0.4167 0.0000 0.1667  plane waves:     439
 k-point    45 :   0.5000-0.0000 0.1667  plane waves:     444
 k-point    46 :   0.1667 0.0833 0.1667  plane waves:     429
 k-point    47 :   0.2500 0.0833 0.1667  plane waves:     435
 k-point    48 :   0.3333 0.0833 0.1667  plane waves:     436
 k-point    49 :   0.4167 0.0833 0.1667  plane waves:     437
 k-point    50 :   0.5000 0.0833 0.1667  plane waves:     441
 k-point    51 :   0.3333 0.1667 0.1667  plane waves:     430
 k-point    52 :   0.4167 0.1667 0.1667  plane waves:     432
 k-point    53 :   0.5000 0.1667 0.1667  plane waves:     432
 k-point    54 :  -0.4167 0.1667 0.1667  plane waves:     433
 k-point    55 :   0.5000 0.2500 0.1667  plane waves:     430
 k-point    56 :  -0.4167 0.2500 0.1667  plane waves:     438
 k-point    57 :  -0.3333 0.3333 0.1667  plane waves:     441
 k-point    58 :   0.0000-0.0000 0.2500  plane waves:     434
 k-point    59 :   0.0833 0.0000 0.2500  plane waves:     430
 k-point    60 :   0.1667-0.0000 0.2500  plane waves:     437
[...]
 k-point   119 :   0.3333 0.0000 0.5000  plane waves:     430
 k-point   120 :   0.4167 0.0000 0.5000  plane waves:     438
 k-point   121 :   0.5000-0.0000 0.5000  plane waves:     432
 k-point   122 :   0.1667 0.0833 0.5000  plane waves:     438
 k-point   123 :   0.2500 0.0833 0.5000  plane waves:     434
 k-point   124 :   0.3333 0.0833 0.5000  plane waves:     434
 k-point   125 :   0.4167 0.0833 0.5000  plane waves:     434
 k-point   126 :   0.5000 0.0833 0.5000  plane waves:     436
 k-point   127 :   0.3333 0.1667 0.5000  plane waves:     432
 k-point   128 :   0.4167 0.1667 0.5000  plane waves:     438
 k-point   129 :   0.5000 0.1667 0.5000  plane waves:     436
 k-point   130 :  -0.4167 0.1667 0.5000  plane waves:     430
 k-point   131 :   0.5000 0.2500 0.5000  plane waves:     436
 k-point   132 :  -0.4167 0.2500 0.5000  plane waves:     432
 k-point   133 :  -0.3333 0.3333 0.5000  plane waves:     444

 maximum and minimum number of plane-waves per node :       458      415

 maximum number of plane-waves:       458
 maximum index in each direction:
   IXMAX=    4   IYMAX=    4   IZMAX=    6
   IXMIN=   -4   IYMIN=   -4   IZMIN=   -7

 serial   3D FFT for wavefunctions
 parallel 3D FFT for charge:
    minimum data exchange during FFTs selected (reduces bandwidth)

 Broyden mixing: mesh for mixing (old mesh)
   NGX =  9   NGY =  9   NGZ = 13
  (NGX  = 28   NGY  = 28   NGZ  = 40)
  gives a total of   1053 points

 charge density for first step will be calculated from the start-wavefunctions

 Maximum index for augmentation-charges          251 (set IRDMAX)

 initial charge from wavefunction
 First call to EWALD:  gamma=   0.496
 Maximum number of real-space cells 3x 3x 2
 Maximum number of reciprocal cells 3x 3x 4

--------------------------------------- Ionic step        1  -------------------------------------------

--------------------------------------- Iteration      1(   1)  ---------------------------------------

 eigenvalue-minimisations  : 22944
 total energy-change (2. order) :-0.3009040E+01  (-0.1357032E-06)
 number of electron       4.0000000 magnetization
 augmentation part        0.0126473 magnetization

 Broyden mixing:
  rms(total) = 0.36541E-04    rms(broyden)= 0.36539E-04
  rms(prec ) = 0.79750E-04
  weight for this iteration     100.00

 Free energy of the ion-electron system (eV)
  alpha Z        PSCENC =         3.93964164
  Ewald energy   TEWEN  =       -58.62536200
  -Hartree energ DENC   =        -0.11978543
  -exchange      EXHF   =         0.00000000
  -V(xc)+E(xc)   XCENC  =       -97.63046666
  PAW double counting   =       118.73087255      -15.01663955
  entropy T*S    EENTRO =        -0.00142637
  eigenvalues    EBANDS =        -0.35886101
  atomic energy  EATOM  =        46.07298663
  Solvation  Ediel_sol  =         0.00000000
  free energy    TOTEN  =        -3.00904020 eV

  energy without entropy =       -3.00761383  energy(sigma->0) =       -3.00832702

--------------------------------------- Iteration      1(   2)  ---------------------------------------

 eigenvalue-minimisations  :  6864
 total energy-change (2. order) :-0.3850309E-07  (-0.7810178E-10)
 number of electron       4.0000000 magnetization
 augmentation part        0.0126473 magnetization

 Free energy of the ion-electron system (eV)
  alpha Z        PSCENC =         3.93964164
  Ewald energy   TEWEN  =       -58.62536200
  -Hartree energ DENC   =        -0.11976378
  -exchange      EXHF   =         0.00000000
  -V(xc)+E(xc)   XCENC  =       -97.63050789
  PAW double counting   =       118.73163133      -15.01740884
  entropy T*S    EENTRO =        -0.00142638
  eigenvalues    EBANDS =        -0.35883094
  atomic energy  EATOM  =        46.07298663
  Solvation  Ediel_sol  =         0.00000000
  free energy    TOTEN  =        -3.00904024 eV

  energy without entropy =       -3.00761386  energy(sigma->0) =       -3.00832705

 average (electrostatic) potential at core
  the test charge radii are     1.0714
  (the norm of the test charge is              1.0000)
       1 -39.1916       2 -39.1916

 E-fermi :   2.5828     XC(G=0):  -8.5052     alpha+bet : -7.4837

 val. band max:        2.5532685847   @ k =   0.1667   0.0833   0.0833
 cond. band min:       2.5999726395   @ k =   0.2500  -0.0000   0.0000
 fundamental gap:      0.0467040548
 Fermi energy:         2.5827623102

 k-point     1 :       0.0000    0.0000    0.0000
  band No.  band energies     occupation
      1      -4.2929      2.00000
      2       0.9818      2.00000
      3       1.4433      2.00000
      4      13.6038      0.00000
      5      13.6038      0.00000
      6      13.7193      0.00000
      7      13.7194      0.00000
      8      14.5416      0.00000
      9      16.1032      0.00000
     10      17.2768      0.00000
     11      17.3110      0.00000
     12      17.7944      0.00000
     13      17.7944      0.00000
     14      18.1560      0.00000
     15      18.1560      0.00000
     16      19.0362      0.00000
     17      19.0362      0.00000
     18      19.7408      0.00000
     19      19.7408      0.00000
     20      20.0608      0.00000
     21      21.5941      0.00000
     22      22.4322      0.00000
     23      28.4158      0.00000
     24      31.3066      0.00000
     25      31.3066      0.00000
     26      34.8070      0.00000
     27      34.8070      0.00000
     28      35.8055      0.00000
     29      35.8055      0.00000
     30      35.8931      0.00000
     31      35.8931      0.00000
     32      37.8494      0.00000
     33      38.2654      0.00000
     34      39.8206      0.00000
     35      41.0402      0.00000
     36      42.3824      0.00000
     37      44.9721      0.00000
     38      48.0632      0.00000
     39      48.0634      0.00000
     40      50.6057      0.00000
     41      50.6848      0.00000
     42      50.6850      0.00000
     43      51.1919      0.00000
     44      51.1956      0.00000
     45      51.3250      0.00000
     46      51.5013      0.00000
     47      51.5034      0.00000
     48      52.1506      0.00000

[...]

 k-point   133 :      -0.3333    0.3333    0.5000
  band No.  band energies     occupation
      1       2.8521      0.00000
      2       2.8521      0.00000
      3       3.3293      0.00000
      4       3.3293      0.00000
      5       4.2129      0.00000
      6       4.2129      0.00000
      7      13.6377      0.00000
      8      13.6377      0.00000
      9      13.8390      0.00000
     10      13.8390      0.00000
     11      14.6919      0.00000
     12      14.6919      0.00000
     13      21.0988      0.00000
     14      21.0988      0.00000
     15      21.2307      0.00000
     16      21.2308      0.00000
     17      22.8979      0.00000
     18      22.8979      0.00000
     19      30.5404      0.00000
     20      30.5404      0.00000
     21      32.5389      0.00000
     22      32.5389      0.00000
     23      32.7471      0.00000
     24      32.7471      0.00000
     25      33.4657      0.00000
     26      33.4657      0.00000
     27      35.6783      0.00000
     28      35.6783      0.00000
     29      36.2601      0.00000
     30      36.2601      0.00000
     31      38.6688      0.00000
     32      38.6688      0.00000
     33      38.8110      0.00000
     34      38.8110      0.00000
     35      41.0052      0.00000
     36      41.0052      0.00000
     37      41.9084      0.00000
     38      41.9084      0.00000
     39      42.7627      0.00000
     40      42.7627      0.00000
     41      44.6130      0.00000
     42      44.6130      0.00000
     43      48.4336      0.00000
     44      48.4336      0.00000
     45      48.8517      0.00000
     46      48.8517      0.00000
     47      49.7307      0.00000
     48      49.7307      0.00000

 soft charge-density along one line, spin component           1
         0         1         2         3         4         5         6         7         8         9
 total charge-density along one line

------------------------ aborting loop because EDIFF is reached ----------------------------------------

  FORCE on cell =-STRESS in cart. coord.  units (eV):
  Direction    XX          YY          ZZ          XY          YZ          ZX
  Alpha Z     3.93964     3.93964     3.93964
  Ewald     -19.62359   -19.62359   -19.37821    -0.00000     0.00000     0.00000
  Hartree     0.03527     0.03527     0.04917     0.00000    -0.00000    -0.00000
  E(xc)      -9.70560    -9.70550    -9.70381    -0.00008    -0.00000    -0.00000
  Local      -0.37840    -0.37840    -0.50467    -0.00000     0.00000     0.00000
  n-local    13.36575    13.02869    13.18301    -0.21551     0.09391    -0.16975
  augment     0.11896     0.11897     0.12008    -0.00000     0.00000     0.00000
  Kinetic    19.44324     5.63777    12.07803    -6.46180     1.24202    -2.79340
  Fock        0.00000     0.00000     0.00000     0.00000     0.00000     0.00000
  Total       0.12406     0.12406    -0.21676    -0.00000     0.00000     0.00000
  in kB       4.34991     4.34991    -7.60006    -0.00000     0.00000     0.00000

 VOLUME and BASIS-vectors are now :
  energy-cutoff  :      260.00
  volume of cell :       45.70
      direct lattice vectors                 reciprocal lattice vectors
     3.194050000  0.000000000  0.000000000     0.313082137 -0.180758056  0.000000000
     1.597025000  2.766128441  0.000000000     0.000000000  0.361516112  0.000000000
     0.000000000  0.000000000  5.171980000    -0.000000000 -0.000000000  0.193349549

  length of vectors
     3.194050000  3.194050000  5.171980000     0.361516112  0.361516112  0.193349549

 FORCES acting on ions
    electron-ion (+dipol)            ewald-force                    non-local-force                 convergence-correction
   -.685E-05 -.396E-05 0.405E-07   0.324E-13 0.188E-13 -.698E-15   0.194E-17 0.318E-17 -.170E-18   -.157E-09 -.904E-10 0.289E-15
   -.102E-04 -.588E-05 -.938E-07   -.325E-13 -.188E-13 0.699E-15   -.143E-17 -.146E-17 0.255E-18   0.157E-09 0.905E-10 -.299E-15
   -.170E-04 -.983E-05 -.533E-07   -.123E-15 -.533E-16 0.699E-18   0.504E-18 0.172E-17 0.850E-19   0.607E-13 0.351E-13 -.995E-17

 POSITION                                       TOTAL-FORCE (eV/Angst)
      0.00000      0.00000      0.00000         0.000000      0.000000     -0.000000
      1.59703      0.92204      2.58599        -0.000000     -0.000000      0.000000
    total drift:                               -0.000017     -0.000010     -0.000000

  FREE ENERGIE OF THE ION-ELECTRON SYSTEM (eV)
  free  energy   TOTEN  =        -3.00904024 eV

  energy  without entropy=       -3.00761386  energy(sigma->0) =       -3.00832705

 writing wavefunctions