 vasp.6.4.3 19Mar24 (build Jun 26 2024 13:02:28) complex

 executed on             LinuxIFC date 2025.08.08  18:27:09

 INCAR:
   ENCUT = 321.8059
   IBRION = -1
   ISMEAR = 0
   ISYM = 2
   LCHARG = True
   LWAVE = True
   SIGMA = 0.05
   SYSTEM = Be

 POTCAR:  PAW_PBE Be 06Sep2000
|           W    W    AA    RRRRR   N    N  II  N    N   GGGG   !!!           |
|           W    W   A  A   R    R  NN   N  II  NN   N  G    G  !!!           |
|           W    W  A    A  R    R  N N  N  II  N N  N  G       !!!           |
|           W WW W  AAAAAA  RRRRR   N  N N  II  N  N N  G  GGG   !            |
|           WW  WW  A    A  R   R   N   NN  II  N   NN  G    G                |
|           W    W  A    A  R    R  N    N  II  N    N   GGGG   !!!           |
|     For optimal performance we recommend to set                             |
|       NCORE = 2 up to number-of-cores-per-socket                            |
|     This setting can greatly improve the performance of VASP for DFT.       |
|     The default, NCORE=1 might be grossly inefficient on modern             |
|     multi-core architectures or massively parallel machines. Do your        |
|     Unfortunately you need to use the default for GW and RPA                |
|     calculations (for HF NCORE is supported but not extensively tested      |
|     yet).                                                                   |

 POTCAR:  PAW_PBE Be 06Sep2000
   VRHFIN =Be: s2p0

   TITEL  = PAW_PBE Be 06Sep2000
   POMASS =    9.013; ZVAL   =    2.000    mass and valenz
   ENMAX  =  247.543; ENMIN  =  185.658 eV

PAW_PBE Be 06Sep2000                    :

 POSCAR: Be2
  positions in direct lattice

 exchange-correlation table for PE
   RHO(1)=    0.500       N(1)  =     2000
   RHO(2)=  100.500       N(2)  =     4000

 ion  position               nearest neighbor table
   1  0.000  0.000  0.000-   2 2.21   2 2.21   2 2.21   2 2.21   2 2.21   2 2.21
   2  0.333  0.333  0.500-   1 2.21   1 2.21   1 2.21   1 2.21   1 2.21   1 2.21

  LATTYP: Found a hexagonal cell.
 ALAT       =     2.2627600000
 C/A-ratio  =     1.5791157701

  Lattice vectors:

 A1 = (  -1.1313800000,  -1.9596076427,   0.0000000000)
 A2 = (   2.2627600000,   0.0000000000,   0.0000000000)
 A3 = (   0.0000000000,   0.0000000000,   3.5731600000)

Analysis of symmetry for initial positions (statically):
 Subroutine PRICEL returns:
 Original cell was already a primitive cell.

 Routine SETGRP: Setting up the symmetry group for a
 hexagonal supercell.

 Subroutine GETGRP returns: Found 24 space group operations
 (whereof 12 operations were pure point group operations)
 out of a pool of 24 trial point group operations.

The static configuration has the point symmetry D_3h.
 The point group associated with its full space group is D_6h.

Analysis of symmetry for dynamics (positions and initial velocities):
 Subroutine PRICEL returns:
 Original cell was already a primitive cell.

 Routine SETGRP: Setting up the symmetry group for a
 hexagonal supercell.

 Subroutine GETGRP returns: Found 24 space group operations
 (whereof 12 operations were pure point group operations)
 out of a pool of 24 trial point group operations.

The dynamic configuration has the point symmetry D_3h.
 The point group associated with its full space group is D_6h.

 Subroutine INISYM returns: Found 24 space group operations
 (whereof 12 operations are pure point group operations),
 and found     1 'primitive' translations

                                     Primitive cell

  volume of cell :      15.8438

  direct lattice vectors                    reciprocal lattice vectors
     2.262760000  0.000000000  0.000000000     0.441938164 -0.255153118  0.000000000
     1.131380000  1.959607643  0.000000000     0.000000000  0.510306236  0.000000000
     0.000000000  0.000000000  3.573160000    -0.000000000 -0.000000000  0.279864322

  length of vectors
     2.262760000  2.262760000  3.573160000     0.510306236  0.510306236  0.279864322

  position of ions in fractional coordinates (direct lattice)
     0.000000000  0.000000000  0.000000000
     0.333333333  0.333333333  0.500000000

  ion indices of the primitive-cell ions
   primitive index   ion index
                 1           1
                 2           2

 KPOINTS: Automatic kpoint scheme

Automatic generation of k-mesh.
 Grid dimensions read from file:
 generate k-points for:   12   12   12

 Generating k-lattice:

  Cartesian coordinates                     Fractional coordinates (reciprocal lattice)
     0.036828180 -0.021262760  0.000000000     0.083333333  0.000000000  0.000000000
     0.000000000  0.042525520  0.000000000     0.000000000  0.083333333  0.000000000
    -0.000000000 -0.000000000  0.023322027     0.000000000  0.000000000  0.083333333

  Length of vectors
     0.042525520  0.042525520  0.023322027

  Shift w.r.t. Gamma in fractional coordinates (k-lattice)
     0.000000000  0.000000000  0.000000000

 Subroutine IBZKPT returns following result:

 Found    133 irreducible k-points:

 Following reciprocal coordinates:
            Coordinates               Weight
  0.000000  0.000000  0.000000      1.000000
  0.083333  0.000000  0.000000      6.000000
  0.166667 -0.000000  0.000000      6.000000
  0.250000  0.000000  0.000000      6.000000
  0.333333 -0.000000  0.000000      6.000000
  0.416667  0.000000  0.000000      6.000000
  0.500000  0.000000  0.000000      3.000000
  0.166667  0.083333  0.000000      6.000000
  0.250000  0.083333  0.000000     12.000000
  0.333333  0.083333  0.000000     12.000000
  0.416667  0.083333  0.000000     12.000000
  0.500000  0.083333  0.000000     12.000000
  0.333333  0.166667  0.000000      6.000000
  0.416667  0.166667  0.000000     12.000000
  0.500000  0.166667  0.000000     12.000000
 -0.416667  0.166667  0.000000      6.000000
  0.500000  0.250000  0.000000      6.000000
 -0.416667  0.250000  0.000000     12.000000
 -0.333333  0.333333  0.000000      2.000000
  0.000000  0.000000  0.083333      2.000000
  0.083333  0.000000  0.083333     12.000000
  0.166667  0.000000  0.083333     12.000000
  0.250000  0.000000  0.083333     12.000000
  0.333333 -0.000000  0.083333     12.000000
  0.416667  0.000000  0.083333     12.000000
  0.500000  0.000000  0.083333      6.000000
  0.166667  0.083333  0.083333     12.000000
  0.250000  0.083333  0.083333     24.000000
  0.333333  0.083333  0.083333     24.000000
  0.416667  0.083333  0.083333     24.000000
  0.500000  0.083333  0.083333     24.000000
  0.333333  0.166667  0.083333     12.000000
  0.416667  0.166667  0.083333     24.000000
  0.500000  0.166667  0.083333     24.000000
 -0.416667  0.166667  0.083333     12.000000
  0.500000  0.250000  0.083333     12.000000
 -0.416667  0.250000  0.083333     24.000000
 -0.333333  0.333333  0.083333      4.000000
  0.000000  0.000000  0.166667      2.000000
  0.083333  0.000000  0.166667     12.000000
  0.166667  0.000000  0.166667     12.000000
  0.250000  0.000000  0.166667     12.000000
  0.333333  0.000000  0.166667     12.000000
  0.416667  0.000000  0.166667     12.000000
  0.500000  0.000000  0.166667      6.000000
  0.166667  0.083333  0.166667     12.000000
  0.250000  0.083333  0.166667     24.000000
  0.333333  0.083333  0.166667     24.000000
  0.416667  0.083333  0.166667     24.000000
  0.500000  0.083333  0.166667     24.000000
  0.333333  0.166667  0.166667     12.000000
  0.416667  0.166667  0.166667     24.000000
  0.500000  0.166667  0.166667     24.000000
 -0.416667  0.166667  0.166667     12.000000
  0.500000  0.250000  0.166667     12.000000
 -0.416667  0.250000  0.166667     24.000000
 -0.333333  0.333333  0.166667      4.000000
  0.000000  0.000000  0.250000      2.000000
  0.083333  0.000000  0.250000     12.000000
  0.166667  0.000000  0.250000     12.000000
[...]
  0.333333  0.000000  0.500000      6.000000
  0.416667  0.000000  0.500000      6.000000
  0.500000  0.000000  0.500000      3.000000
  0.166667  0.083333  0.500000      6.000000
  0.250000  0.083333  0.500000     12.000000
  0.333333  0.083333  0.500000     12.000000
  0.416667  0.083333  0.500000     12.000000
  0.500000  0.083333  0.500000     12.000000
  0.333333  0.166667  0.500000      6.000000
  0.416667  0.166667  0.500000     12.000000
  0.500000  0.166667  0.500000     12.000000
 -0.416667  0.166667  0.500000      6.000000
  0.500000  0.250000  0.500000      6.000000
 -0.416667  0.250000  0.500000     12.000000
 -0.333333  0.333333  0.500000      2.000000

 Following cartesian coordinates:
            Coordinates               Weight
  0.000000  0.000000  0.000000      1.000000
  0.036828 -0.021263  0.000000      6.000000
  0.073656 -0.042526  0.000000      6.000000
  0.110485 -0.063788  0.000000      6.000000
  0.147313 -0.085051  0.000000      6.000000
  0.184141 -0.106314  0.000000      6.000000
  0.220969 -0.127577  0.000000      3.000000
  0.073656  0.000000  0.000000      6.000000
  0.110485 -0.021263  0.000000     12.000000
  0.147313 -0.042526  0.000000     12.000000
  0.184141 -0.063788  0.000000     12.000000
  0.220969 -0.085051  0.000000     12.000000
  0.147313 -0.000000  0.000000      6.000000
  0.184141 -0.021263  0.000000     12.000000
  0.220969 -0.042526  0.000000     12.000000
 -0.184141  0.191365  0.000000      6.000000
  0.220969 -0.000000  0.000000      6.000000
 -0.184141  0.233890  0.000000     12.000000
 -0.147313  0.255153  0.000000      2.000000
 -0.000000 -0.000000  0.023322      2.000000
  0.036828 -0.021263  0.023322     12.000000
  0.073656 -0.042526  0.023322     12.000000
  0.110485 -0.063788  0.023322     12.000000
  0.147313 -0.085051  0.023322     12.000000
  0.184141 -0.106314  0.023322     12.000000
  0.220969 -0.127577  0.023322      6.000000
  0.073656  0.000000  0.023322     12.000000
  0.110485 -0.021263  0.023322     24.000000
  0.147313 -0.042526  0.023322     24.000000
  0.184141 -0.063788  0.023322     24.000000
  0.220969 -0.085051  0.023322     24.000000
  0.147313 -0.000000  0.023322     12.000000
  0.184141 -0.021263  0.023322     24.000000
  0.220969 -0.042526  0.023322     24.000000
 -0.184141  0.191365  0.023322     12.000000
  0.220969 -0.000000  0.023322     12.000000
 -0.184141  0.233890  0.023322     24.000000
 -0.147313  0.255153  0.023322      4.000000
 -0.000000 -0.000000  0.046644      2.000000
  0.036828 -0.021263  0.046644     12.000000
  0.073656 -0.042526  0.046644     12.000000
  0.110485 -0.063788  0.046644     12.000000
  0.147313 -0.085051  0.046644     12.000000
  0.184141 -0.106314  0.046644     12.000000
  0.220969 -0.127577  0.046644      6.000000
  0.073656  0.000000  0.046644     12.000000
  0.110485 -0.021263  0.046644     24.000000
  0.147313 -0.042526  0.046644     24.000000
  0.184141 -0.063788  0.046644     24.000000
  0.220969 -0.085051  0.046644     24.000000
  0.147313 -0.000000  0.046644     12.000000
  0.184141 -0.021263  0.046644     24.000000
  0.220969 -0.042526  0.046644     24.000000
 -0.184141  0.191365  0.046644     12.000000
  0.220969 -0.000000  0.046644     12.000000
 -0.184141  0.233890  0.046644     24.000000
 -0.147313  0.255153  0.046644      4.000000
 -0.000000 -0.000000  0.069966      2.000000
[...]
  -0.41666667  0.16666667  0.08333333       0.007
   0.50000000  0.25000000  0.08333333       0.007
  -0.41666667  0.25000000  0.08333333       0.014
  -0.33333333  0.33333333  0.08333333       0.002
   0.00000000  0.00000000  0.16666667       0.001
   0.08333333  0.00000000  0.16666667       0.007
   0.16666667  0.00000000  0.16666667       0.007
   0.25000000  0.00000000  0.16666667       0.007
   0.33333333  0.00000000  0.16666667       0.007
   0.41666667  0.00000000  0.16666667       0.007
   0.50000000  0.00000000  0.16666667       0.003
   0.16666667  0.08333333  0.16666667       0.007
   0.25000000  0.08333333  0.16666667       0.014
   0.33333333  0.08333333  0.16666667       0.014
   0.41666667  0.08333333  0.16666667       0.014
   0.50000000  0.08333333  0.16666667       0.014
   0.33333333  0.16666667  0.16666667       0.007
   0.41666667  0.16666667  0.16666667       0.014
   0.50000000  0.16666667  0.16666667       0.014
  -0.41666667  0.16666667  0.16666667       0.007
   0.50000000  0.25000000  0.16666667       0.007
  -0.41666667  0.25000000  0.16666667       0.014
  -0.33333333  0.33333333  0.16666667       0.002
   0.00000000  0.00000000  0.25000000       0.001
   0.08333333  0.00000000  0.25000000       0.007
   0.16666667  0.00000000  0.25000000       0.007
[...]
   0.33333333  0.00000000  0.50000000       0.003
   0.41666667  0.00000000  0.50000000       0.003
   0.50000000  0.00000000  0.50000000       0.002
   0.16666667  0.08333333  0.50000000       0.003
   0.25000000  0.08333333  0.50000000       0.007
   0.33333333  0.08333333  0.50000000       0.007
   0.41666667  0.08333333  0.50000000       0.007
   0.50000000  0.08333333  0.50000000       0.007
   0.33333333  0.16666667  0.50000000       0.003
   0.41666667  0.16666667  0.50000000       0.007
   0.50000000  0.16666667  0.50000000       0.007
  -0.41666667  0.16666667  0.50000000       0.003
   0.50000000  0.25000000  0.50000000       0.003
  -0.41666667  0.25000000  0.50000000       0.007
  -0.33333333  0.33333333  0.50000000       0.001

 position of ions in fractional coordinates (direct lattice)
   0.00000000  0.00000000  0.00000000
   0.33333333  0.33333333  0.50000000

 position of ions in cartesian coordinates  (Angst):
   0.00000000  0.00000000  0.00000000
   1.13138000  0.65320255  1.78658000

 k-point     1 :   0.0000 0.0000 0.0000  plane waves:     221
 k-point     2 :   0.0833 0.0000 0.0000  plane waves:     209
 k-point     3 :   0.1667-0.0000 0.0000  plane waves:     210
 k-point     4 :   0.2500 0.0000 0.0000  plane waves:     202
 k-point     5 :   0.3333-0.0000 0.0000  plane waves:     206
 k-point     6 :   0.4167 0.0000 0.0000  plane waves:     214
 k-point     7 :   0.5000 0.0000 0.0000  plane waves:     218
 k-point     8 :   0.1667 0.0833 0.0000  plane waves:     207
 k-point     9 :   0.2500 0.0833 0.0000  plane waves:     209
 k-point    10 :   0.3333 0.0833 0.0000  plane waves:     210
 k-point    11 :   0.4167 0.0833 0.0000  plane waves:     211
 k-point    12 :   0.5000 0.0833 0.0000  plane waves:     208
 k-point    13 :   0.3333 0.1667 0.0000  plane waves:     207
 k-point    14 :   0.4167 0.1667 0.0000  plane waves:     208
 k-point    15 :   0.5000 0.1667 0.0000  plane waves:     206
 k-point    16 :  -0.4167 0.1667 0.0000  plane waves:     204
 k-point    17 :   0.5000 0.2500 0.0000  plane waves:     205
 k-point    18 :  -0.4167 0.2500 0.0000  plane waves:     206
 k-point    19 :  -0.3333 0.3333 0.0000  plane waves:     207
 k-point    20 :   0.0000 0.0000 0.0833  plane waves:     209
 k-point    21 :   0.0833 0.0000 0.0833  plane waves:     210
 k-point    22 :   0.1667 0.0000 0.0833  plane waves:     212
 k-point    23 :   0.2500 0.0000 0.0833  plane waves:     205
 k-point    24 :   0.3333-0.0000 0.0833  plane waves:     206
 k-point    25 :   0.4167 0.0000 0.0833  plane waves:     214
 k-point    26 :   0.5000 0.0000 0.0833  plane waves:     216
 k-point    27 :   0.1667 0.0833 0.0833  plane waves:     210
 k-point    28 :   0.2500 0.0833 0.0833  plane waves:     206
 k-point    29 :   0.3333 0.0833 0.0833  plane waves:     205
 k-point    30 :   0.4167 0.0833 0.0833  plane waves:     208
 k-point    31 :   0.5000 0.0833 0.0833  plane waves:     209
 k-point    32 :   0.3333 0.1667 0.0833  plane waves:     209
 k-point    33 :   0.4167 0.1667 0.0833  plane waves:     204
 k-point    34 :   0.5000 0.1667 0.0833  plane waves:     205
 k-point    35 :  -0.4167 0.1667 0.0833  plane waves:     205
 k-point    36 :   0.5000 0.2500 0.0833  plane waves:     205
 k-point    37 :  -0.4167 0.2500 0.0833  plane waves:     207
 k-point    38 :  -0.3333 0.3333 0.0833  plane waves:     207
 k-point    39 :   0.0000 0.0000 0.1667  plane waves:     209
 k-point    40 :   0.0833 0.0000 0.1667  plane waves:     212
 k-point    41 :   0.1667 0.0000 0.1667  plane waves:     210
 k-point    42 :   0.2500 0.0000 0.1667  plane waves:     200
 k-point    43 :   0.3333 0.0000 0.1667  plane waves:     207
 k-point    44 :   0.4167 0.0000 0.1667  plane waves:     211
 k-point    45 :   0.5000 0.0000 0.1667  plane waves:     210
 k-point    46 :   0.1667 0.0833 0.1667  plane waves:     212
 k-point    47 :   0.2500 0.0833 0.1667  plane waves:     208
 k-point    48 :   0.3333 0.0833 0.1667  plane waves:     207
 k-point    49 :   0.4167 0.0833 0.1667  plane waves:     208
 k-point    50 :   0.5000 0.0833 0.1667  plane waves:     207
 k-point    51 :   0.3333 0.1667 0.1667  plane waves:     209
 k-point    52 :   0.4167 0.1667 0.1667  plane waves:     206
 k-point    53 :   0.5000 0.1667 0.1667  plane waves:     205
 k-point    54 :  -0.4167 0.1667 0.1667  plane waves:     208
 k-point    55 :   0.5000 0.2500 0.1667  plane waves:     208
 k-point    56 :  -0.4167 0.2500 0.1667  plane waves:     205
 k-point    57 :  -0.3333 0.3333 0.1667  plane waves:     201
 k-point    58 :   0.0000 0.0000 0.2500  plane waves:     208
 k-point    59 :   0.0833 0.0000 0.2500  plane waves:     213
 k-point    60 :   0.1667 0.0000 0.2500  plane waves:     213
[...]
 k-point   119 :   0.3333 0.0000 0.5000  plane waves:     212
 k-point   120 :   0.4167 0.0000 0.5000  plane waves:     208
 k-point   121 :   0.5000 0.0000 0.5000  plane waves:     204
 k-point   122 :   0.1667 0.0833 0.5000  plane waves:     214
 k-point   123 :   0.2500 0.0833 0.5000  plane waves:     208
 k-point   124 :   0.3333 0.0833 0.5000  plane waves:     210
 k-point   125 :   0.4167 0.0833 0.5000  plane waves:     206
 k-point   126 :   0.5000 0.0833 0.5000  plane waves:     206
 k-point   127 :   0.3333 0.1667 0.5000  plane waves:     208
 k-point   128 :   0.4167 0.1667 0.5000  plane waves:     210
 k-point   129 :   0.5000 0.1667 0.5000  plane waves:     208
 k-point   130 :  -0.4167 0.1667 0.5000  plane waves:     210
 k-point   131 :   0.5000 0.2500 0.5000  plane waves:     206
 k-point   132 :  -0.4167 0.2500 0.5000  plane waves:     204
 k-point   133 :  -0.3333 0.3333 0.5000  plane waves:     210

 maximum and minimum number of plane-waves per node :       221      200

 maximum number of plane-waves:       221
 maximum index in each direction:
   IXMAX=    3   IYMAX=    3   IZMAX=    5
   IXMIN=   -3   IYMIN=   -3   IZMIN=   -5

 serial   3D FFT for wavefunctions
 parallel 3D FFT for charge:
    minimum data exchange during FFTs selected (reduces bandwidth)

 Broyden mixing: mesh for mixing (old mesh)
   NGX =  7   NGY =  7   NGZ = 11
  (NGX  = 20   NGY  = 20   NGZ  = 32)
  gives a total of    539 points

 charge density for first step will be calculated from the start-wavefunctions

 Maximum index for augmentation-charges          241 (set IRDMAX)

 initial charge from wavefunction
 First call to EWALD:  gamma=   0.706
 Maximum number of real-space cells 3x 3x 2
 Maximum number of reciprocal cells 3x 3x 4

--------------------------------------- Ionic step        1  -------------------------------------------

--------------------------------------- Iteration      1(   1)  ---------------------------------------

 eigenvalue-minimisations  :  8832
 total energy-change (2. order) :-0.7543240E+01  (-0.2265242E-06)
 number of electron       4.0000000 magnetization
 augmentation part       -0.0398754 magnetization

 Broyden mixing:
  rms(total) = 0.65583E-04    rms(broyden)= 0.65516E-04
  rms(prec ) = 0.14743E-03
  weight for this iteration     100.00

 Free energy of the ion-electron system (eV)
  alpha Z        PSCENC =         4.41032451
  Ewald energy   TEWEN  =       -83.43647576
  -Hartree energ DENC   =        -0.08079933
  -exchange      EXHF   =         0.00000000
  -V(xc)+E(xc)   XCENC  =         7.65054628
  PAW double counting   =       137.54932520     -136.42121361
  entropy T*S    EENTRO =        -0.00020246
  eigenvalues    EBANDS =         7.82705160
  atomic energy  EATOM  =        54.95820394
  Solvation  Ediel_sol  =         0.00000000
  free energy    TOTEN  =        -7.54323964 eV

  energy without entropy =       -7.54303718  energy(sigma->0) =       -7.54313841

--------------------------------------- Iteration      1(   2)  ---------------------------------------

 eigenvalue-minimisations  :  6864
 total energy-change (2. order) : 0.4845487E-07  (-0.2997619E-09)
 number of electron       4.0000000 magnetization
 augmentation part       -0.0398754 magnetization

 Free energy of the ion-electron system (eV)
  alpha Z        PSCENC =         4.41032451
  Ewald energy   TEWEN  =       -83.43647576
  -Hartree energ DENC   =        -0.08079284
  -exchange      EXHF   =         0.00000000
  -V(xc)+E(xc)   XCENC  =         7.65052412
  PAW double counting   =       137.53753440     -136.40946066
  entropy T*S    EENTRO =        -0.00020247
  eigenvalues    EBANDS =         7.82710517
  atomic energy  EATOM  =        54.95820394
  Solvation  Ediel_sol  =         0.00000000
  free energy    TOTEN  =        -7.54323959 eV

  energy without entropy =       -7.54303712  energy(sigma->0) =       -7.54313835

 average (electrostatic) potential at core
  the test charge radii are     0.9943
  (the norm of the test charge is              1.0000)
       1 -32.7527       2 -32.7527

 E-fermi :   7.3209     XC(G=0): -10.5992     alpha+bet :-16.0658

 val. band max:        7.3076447678   @ k =   0.5000   0.2500   0.0833
 cond. band min:       7.3756438223   @ k =  -0.3333   0.3333   0.5000
 fundamental gap:      0.0679990545
 Fermi energy:         7.3209150093

 k-point     1 :       0.0000    0.0000    0.0000
  band No.  band energies     occupation
      1      -4.3311      2.00000
      2       2.5503      2.00000
      3       8.0668      0.00000
      4      23.0397      0.00000
      5      23.0397      0.00000
      6      25.8673      0.00000
      7      25.8673      0.00000
      8      27.8427      0.00000
      9      34.1242      0.00000
     10      35.4200      0.00000
     11      35.4200      0.00000
     12      36.8664      0.00000
     13      39.9565      0.00000
     14      39.9565      0.00000
     15      40.1959      0.00000
     16      42.0271      0.00000
     17      42.0271      0.00000
     18      42.6704      0.00000
     19      42.9898      0.00000
     20      44.3308      0.00000
     21      44.3308      0.00000
     22      50.0797      0.00000
     23      61.0127      0.00000
     24      62.9775      0.00000
     25      71.1931      0.00000
     26      71.1931      0.00000
     27      74.2069      0.00000
     28      74.2070      0.00000
     29      76.2431      0.00000
     30      76.4028      0.00000
     31      76.4028      0.00000
     32      77.6785      0.00000
     33      77.6785      0.00000
     34      85.0488      0.00000
     35      89.2961      0.00000
     36      94.9415      0.00000
     37      97.2216      0.00000
     38      99.3209      0.00000
     39      99.3213      0.00000
     40     105.4091      0.00000
     41     105.4092      0.00000
     42     106.6988      0.00000
     43     106.6994      0.00000
     44     107.8214      0.00000
     45     113.3436      0.00000
     46     115.6215      0.00000
     47     115.6220      0.00000
     48     116.0455      0.00000

[...]

 k-point   133 :      -0.3333    0.3333    0.5000
  band No.  band energies     occupation
      1       5.8979      2.00000
      2       5.8979      2.00000
      3       7.3756      0.12163
      4       7.3756      0.12162
      5      13.3051      0.00000
      6      13.3051      0.00000
      7      23.2115      0.00000
      8      23.2115      0.00000
      9      31.1080      0.00000
     10      31.1080      0.00000
     11      35.6284      0.00000
     12      35.6284      0.00000
     13      42.1112      0.00000
     14      42.1112      0.00000
     15      42.2565      0.00000
     16      42.2565      0.00000
     17      51.8666      0.00000
     18      51.8666      0.00000
     19      59.9629      0.00000
     20      59.9629      0.00000
     21      65.9342      0.00000
     22      65.9342      0.00000
     23      73.2232      0.00000
     24      73.2232      0.00000
     25      74.4499      0.00000
     26      74.4499      0.00000
     27      75.8181      0.00000
     28      75.8181      0.00000
     29      76.5408      0.00000
     30      76.5408      0.00000
     31      76.7940      0.00000
     32      76.7940      0.00000
     33      80.0548      0.00000
     34      80.0548      0.00000
     35      86.3325      0.00000
     36      86.3325      0.00000
     37      86.3460      0.00000
     38      86.3460      0.00000
     39      86.5914      0.00000
     40      86.5914      0.00000
     41      95.4422      0.00000
     42      95.4422      0.00000
     43     102.2960      0.00000
     44     102.2960      0.00000
     45     102.6771      0.00000
     46     102.6771      0.00000
     47     105.3549      0.00000
     48     105.3549      0.00000

 soft charge-density along one line, spin component           1
         0         1         2         3         4         5         6         7         8         9
 total charge-density along one line

------------------------ aborting loop because EDIFF is reached ----------------------------------------

  FORCE on cell =-STRESS in cart. coord.  units (eV):
  Direction    XX          YY          ZZ          XY          YZ          ZX
  Alpha Z     4.41032     4.41032     4.41032
  Ewald     -28.20064   -28.20064   -27.03526    -0.00000     0.00000     0.00000
  Hartree     0.01871     0.01871     0.04336     0.00000    -0.00000    -0.00000
  E(xc)     -10.50888   -10.50888   -10.52121    -0.00000     0.00000     0.00000
  Local      -0.49931    -0.49930    -1.57533    -0.00001     0.00000     0.00001
  n-local     6.31730     9.48704     8.20178     1.06838    -0.17231     0.33154
  augment    -0.36942    -0.36942    -0.36507    -0.00000    -0.00000    -0.00000
  Kinetic    41.56193    12.96467    26.77383   -13.90310     2.22466    -5.68895
  Fock        0.00000     0.00000     0.00000     0.00000     0.00000     0.00000
  Total       0.01627     0.01627    -0.06758    -0.00000    -0.00000    -0.00000
  in kB       1.64569     1.64569    -6.83363    -0.00000    -0.00000    -0.00000

 VOLUME and BASIS-vectors are now :
  energy-cutoff  :      321.81
  volume of cell :       15.84
      direct lattice vectors                 reciprocal lattice vectors
     2.262760000  0.000000000  0.000000000     0.441938164 -0.255153118  0.000000000
     1.131380000  1.959607643  0.000000000     0.000000000  0.510306236  0.000000000
     0.000000000  0.000000000  3.573160000    -0.000000000 -0.000000000  0.279864322

  length of vectors
     2.262760000  2.262760000  3.573160000     0.510306236  0.510306236  0.279864322

 FORCES acting on ions
    electron-ion (+dipol)            ewald-force                    non-local-force                 convergence-correction
   0.108E-06 0.622E-07 0.482E-08   0.735E-13 0.429E-13 -.122E-14   0.285E-17 -.148E-16 -.367E-16   0.344E-11 0.198E-11 -.191E-15
   -.149E-06 -.858E-07 -.768E-08   -.731E-13 -.429E-13 0.122E-14   0.442E-17 0.763E-17 0.316E-16   -.343E-11 -.198E-11 0.178E-14
   -.410E-07 -.237E-07 -.285E-08   0.330E-15 -.738E-16 -.121E-17   0.727E-17 -.720E-17 -.512E-17   0.993E-15 0.557E-15 0.159E-14

 POSITION                                       TOTAL-FORCE (eV/Angst)
      0.00000      0.00000      0.00000         0.000000      0.000000      0.000000
      1.13138      0.65320      1.78658        -0.000000     -0.000000     -0.000000
    total drift:                               -0.000000     -0.000000     -0.000000

  FREE ENERGIE OF THE ION-ELECTRON SYSTEM (eV)
  free  energy   TOTEN  =        -7.54323959 eV

  energy  without entropy=       -7.54303712  energy(sigma->0) =       -7.54313835

 writing wavefunctions