 vasp.6.4.3 19Mar24 (build Jun 26 2024 13:02:28) complex

 executed on             LinuxIFC date 2025.08.08  18:24:43

 INCAR:
   ENCUT = 260.0
   IBRION = -1
   ISMEAR = 0
   ISYM = 2
   LCHARG = True
   LWAVE = True
   SIGMA = 0.05
   SYSTEM = Mg

 POTCAR:  PAW_PBE Mg 13Apr2007
|           W    W    AA    RRRRR   N    N  II  N    N   GGGG   !!!           |
|           W    W   A  A   R    R  NN   N  II  NN   N  G    G  !!!           |
|           W    W  A    A  R    R  N N  N  II  N N  N  G       !!!           |
|           W WW W  AAAAAA  RRRRR   N  N N  II  N  N N  G  GGG   !            |
|           WW  WW  A    A  R   R   N   NN  II  N   NN  G    G                |
|           W    W  A    A  R    R  N    N  II  N    N   GGGG   !!!           |
|     For optimal performance we recommend to set                             |
|       NCORE = 2 up to number-of-cores-per-socket                            |
|     This setting can greatly improve the performance of VASP for DFT.       |
|     The default, NCORE=1 might be grossly inefficient on modern             |
|     multi-core architectures or massively parallel machines. Do your        |
|     Unfortunately you need to use the default for GW and RPA                |
|     calculations (for HF NCORE is supported but not extensively tested      |
|     yet).                                                                   |

 POTCAR:  PAW_PBE Mg 13Apr2007
   VRHFIN =Mg: s2p0

   TITEL  = PAW_PBE Mg 13Apr2007
   POMASS =   24.305; ZVAL   =    2.000    mass and valenz
   ENMAX  =  200.000; ENMIN  =  100.000 eV

PAW_PBE Mg 13Apr2007                    :

 POSCAR: Mg2
  positions in direct lattice

 exchange-correlation table for PE
   RHO(1)=    0.500       N(1)  =     2000
   RHO(2)=  100.500       N(2)  =     4000

 ion  position               nearest neighbor table
   1  0.000  0.000  0.000-   2 3.18   2 3.18   2 3.18   2 3.18   2 3.18   2 3.18
   2  0.333  0.333  0.500-   1 3.18   1 3.18   1 3.18   1 3.18   1 3.18   1 3.18

  LATTYP: Found a hexagonal cell.
 ALAT       =     3.1940500000
 C/A-ratio  =     1.6192545514

  Lattice vectors:

 A1 = (  -1.5970250000,  -2.7661284410,   0.0000000000)
 A2 = (   3.1940500000,   0.0000000000,   0.0000000000)
 A3 = (   0.0000000000,   0.0000000000,   5.1719800000)

Analysis of symmetry for initial positions (statically):
 Subroutine PRICEL returns:
 Original cell was already a primitive cell.

 Routine SETGRP: Setting up the symmetry group for a
 hexagonal supercell.

 Subroutine GETGRP returns: Found 24 space group operations
 (whereof 12 operations were pure point group operations)
 out of a pool of 24 trial point group operations.

The static configuration has the point symmetry D_3h.
 The point group associated with its full space group is D_6h.

Analysis of symmetry for dynamics (positions and initial velocities):
 Subroutine PRICEL returns:
 Original cell was already a primitive cell.

 Routine SETGRP: Setting up the symmetry group for a
 hexagonal supercell.

 Subroutine GETGRP returns: Found 24 space group operations
 (whereof 12 operations were pure point group operations)
 out of a pool of 24 trial point group operations.

The dynamic configuration has the point symmetry D_3h.
 The point group associated with its full space group is D_6h.

 Subroutine INISYM returns: Found 24 space group operations
 (whereof 12 operations are pure point group operations),
 and found     1 'primitive' translations

                                     Primitive cell

  volume of cell :      45.6952

  direct lattice vectors                    reciprocal lattice vectors
     3.194050000  0.000000000  0.000000000     0.313082137 -0.180758056  0.000000000
     1.597025000  2.766128441  0.000000000     0.000000000  0.361516112  0.000000000
     0.000000000  0.000000000  5.171980000    -0.000000000 -0.000000000  0.193349549

  length of vectors
     3.194050000  3.194050000  5.171980000     0.361516112  0.361516112  0.193349549

  position of ions in fractional coordinates (direct lattice)
     0.000000000  0.000000000  0.000000000
     0.333333333  0.333333333  0.500000000

  ion indices of the primitive-cell ions
   primitive index   ion index
                 1           1
                 2           2

 KPOINTS: Automatic kpoint scheme

Automatic generation of k-mesh.
 Grid dimensions read from file:
 generate k-points for:    8    8    8

 Generating k-lattice:

  Cartesian coordinates                     Fractional coordinates (reciprocal lattice)
     0.039135267 -0.022594757  0.000000000     0.125000000  0.000000000  0.000000000
     0.000000000  0.045189514  0.000000000     0.000000000  0.125000000  0.000000000
    -0.000000000 -0.000000000  0.024168694    -0.000000000 -0.000000000  0.125000000

  Length of vectors
     0.045189514  0.045189514  0.024168694

  Shift w.r.t. Gamma in fractional coordinates (k-lattice)
     0.000000000  0.000000000  0.000000000

 Subroutine IBZKPT returns following result:

 Found     50 irreducible k-points:

 Following reciprocal coordinates:
            Coordinates               Weight
  0.000000  0.000000  0.000000      1.000000
  0.125000 -0.000000  0.000000      6.000000
  0.250000 -0.000000  0.000000      6.000000
  0.375000 -0.000000  0.000000      6.000000
  0.500000 -0.000000  0.000000      3.000000
  0.250000  0.125000  0.000000      6.000000
  0.375000  0.125000  0.000000     12.000000
  0.500000  0.125000  0.000000     12.000000
  0.500000  0.250000  0.000000      6.000000
 -0.375000  0.250000  0.000000      6.000000
  0.000000 -0.000000  0.125000      2.000000
  0.125000 -0.000000  0.125000     12.000000
  0.250000 -0.000000  0.125000     12.000000
  0.375000 -0.000000  0.125000     12.000000
  0.500000 -0.000000  0.125000      6.000000
  0.250000  0.125000  0.125000     12.000000
  0.375000  0.125000  0.125000     24.000000
  0.500000  0.125000  0.125000     24.000000
  0.500000  0.250000  0.125000     12.000000
 -0.375000  0.250000  0.125000     12.000000
  0.000000 -0.000000  0.250000      2.000000
  0.125000 -0.000000  0.250000     12.000000
  0.250000 -0.000000  0.250000     12.000000
  0.375000 -0.000000  0.250000     12.000000
  0.500000 -0.000000  0.250000      6.000000
  0.250000  0.125000  0.250000     12.000000
  0.375000  0.125000  0.250000     24.000000
  0.500000  0.125000  0.250000     24.000000
  0.500000  0.250000  0.250000     12.000000
 -0.375000  0.250000  0.250000     12.000000
  0.000000  0.000000  0.375000      2.000000
  0.125000 -0.000000  0.375000     12.000000
  0.250000  0.000000  0.375000     12.000000
  0.375000 -0.000000  0.375000     12.000000
  0.500000 -0.000000  0.375000      6.000000
  0.250000  0.125000  0.375000     12.000000
  0.375000  0.125000  0.375000     24.000000
  0.500000  0.125000  0.375000     24.000000
  0.500000  0.250000  0.375000     12.000000
 -0.375000  0.250000  0.375000     12.000000
  0.000000 -0.000000  0.500000      1.000000
  0.125000  0.000000  0.500000      6.000000
  0.250000 -0.000000  0.500000      6.000000
  0.375000  0.000000  0.500000      6.000000
  0.500000 -0.000000  0.500000      3.000000
  0.250000  0.125000  0.500000      6.000000
  0.375000  0.125000  0.500000     12.000000
  0.500000  0.125000  0.500000     12.000000
  0.500000  0.250000  0.500000      6.000000
 -0.375000  0.250000  0.500000      6.000000

 Following cartesian coordinates:
            Coordinates               Weight
  0.000000  0.000000  0.000000      1.000000
  0.039135 -0.022595  0.000000      6.000000
  0.078271 -0.045190  0.000000      6.000000
  0.117406 -0.067784  0.000000      6.000000
  0.156541 -0.090379  0.000000      3.000000
  0.078271 -0.000000  0.000000      6.000000
  0.117406 -0.022595  0.000000     12.000000
  0.156541 -0.045190  0.000000     12.000000
  0.156541 -0.000000  0.000000      6.000000
 -0.117406  0.158163  0.000000      6.000000
 -0.000000 -0.000000  0.024169      2.000000
  0.039135 -0.022595  0.024169     12.000000
  0.078271 -0.045190  0.024169     12.000000
  0.117406 -0.067784  0.024169     12.000000
  0.156541 -0.090379  0.024169      6.000000
  0.078271 -0.000000  0.024169     12.000000
  0.117406 -0.022595  0.024169     24.000000
  0.156541 -0.045190  0.024169     24.000000
  0.156541 -0.000000  0.024169     12.000000
 -0.117406  0.158163  0.024169     12.000000
 -0.000000 -0.000000  0.048337      2.000000
  0.039135 -0.022595  0.048337     12.000000
  0.078271 -0.045190  0.048337     12.000000
  0.117406 -0.067784  0.048337     12.000000
  0.156541 -0.090379  0.048337      6.000000
  0.078271 -0.000000  0.048337     12.000000
  0.117406 -0.022595  0.048337     24.000000
  0.156541 -0.045190  0.048337     24.000000
  0.156541 -0.000000  0.048337     12.000000
 -0.117406  0.158163  0.048337     12.000000
 -0.000000 -0.000000  0.072506      2.000000
  0.039135 -0.022595  0.072506     12.000000
  0.078271 -0.045190  0.072506     12.000000
  0.117406 -0.067784  0.072506     12.000000
  0.156541 -0.090379  0.072506      6.000000
  0.078271 -0.000000  0.072506     12.000000
  0.117406 -0.022595  0.072506     24.000000
  0.156541 -0.045190  0.072506     24.000000
  0.156541 -0.000000  0.072506     12.000000
 -0.117406  0.158163  0.072506     12.000000
 -0.000000 -0.000000  0.096675      1.000000
  0.039135 -0.022595  0.096675      6.000000
  0.078271 -0.045190  0.096675      6.000000
  0.117406 -0.067784  0.096675      6.000000
  0.156541 -0.090379  0.096675      3.000000
  0.078271 -0.000000  0.096675      6.000000
  0.117406 -0.022595  0.096675     12.000000
  0.156541 -0.045190  0.096675     12.000000
  0.156541 -0.000000  0.096675      6.000000
 -0.117406  0.158163  0.096675      6.000000

 Subroutine IBZKPT_HF returns following result:

 Found    512 k-points in 1st BZ
 the following    512 k-points will be used (e.g. in the exchange kernel)
 Following reciprocal coordinates:   # in IRBZ
  0.000000  0.000000  0.000000    0.00195312   1 t-inv F
  0.125000 -0.000000  0.000000    0.00195312   2 t-inv F
  0.250000 -0.000000  0.000000    0.00195312   3 t-inv F
  0.375000 -0.000000  0.000000    0.00195312   4 t-inv F
  0.500000 -0.000000  0.000000    0.00195312   5 t-inv F
  0.250000  0.125000  0.000000    0.00195312   6 t-inv F
  0.375000  0.125000  0.000000    0.00195312   7 t-inv F
  0.500000  0.125000  0.000000    0.00195312   8 t-inv F
  0.500000  0.250000  0.000000    0.00195312   9 t-inv F
 -0.375000  0.250000  0.000000    0.00195312  10 t-inv F
  0.000000 -0.000000  0.125000    0.00195312  11 t-inv F
  0.125000 -0.000000  0.125000    0.00195312  12 t-inv F
  0.250000 -0.000000  0.125000    0.00195312  13 t-inv F
  0.375000 -0.000000  0.125000    0.00195312  14 t-inv F
  0.500000 -0.000000  0.125000    0.00195312  15 t-inv F
  0.250000  0.125000  0.125000    0.00195312  16 t-inv F
  0.375000  0.125000  0.125000    0.00195312  17 t-inv F
  0.500000  0.125000  0.125000    0.00195312  18 t-inv F
  0.500000  0.250000  0.125000    0.00195312  19 t-inv F
 -0.375000  0.250000  0.125000    0.00195312  20 t-inv F
  0.000000 -0.000000  0.250000    0.00195312  21 t-inv F
  0.125000 -0.000000  0.250000    0.00195312  22 t-inv F
[...]
  -0.11740580  0.15816330  0.04833739       0.023
  -0.00000000 -0.00000000  0.07250608       0.004
   0.03913527 -0.02259476  0.07250608       0.023
   0.07827053 -0.04518951  0.07250608       0.023
   0.11740580 -0.06778427  0.07250608       0.023
   0.15654107 -0.09037903  0.07250608       0.012
   0.07827053 -0.00000000  0.07250608       0.023
   0.11740580 -0.02259476  0.07250608       0.047
   0.15654107 -0.04518951  0.07250608       0.047
   0.15654107 -0.00000000  0.07250608       0.023
  -0.11740580  0.15816330  0.07250608       0.023
  -0.00000000 -0.00000000  0.09667477       0.002
   0.03913527 -0.02259476  0.09667477       0.012
   0.07827053 -0.04518951  0.09667477       0.012
   0.11740580 -0.06778427  0.09667477       0.012
   0.15654107 -0.09037903  0.09667477       0.006
   0.07827053 -0.00000000  0.09667477       0.012
   0.11740580 -0.02259476  0.09667477       0.023
   0.15654107 -0.04518951  0.09667477       0.023
   0.15654107 -0.00000000  0.09667477       0.012
  -0.11740580  0.15816330  0.09667477       0.012

 k-points in reciprocal lattice and weights: Automatic kpoint scheme
   0.00000000  0.00000000  0.00000000       0.002
   0.12500000 -0.00000000  0.00000000       0.012
   0.25000000 -0.00000000  0.00000000       0.012
   0.37500000 -0.00000000  0.00000000       0.012
   0.50000000 -0.00000000  0.00000000       0.006
   0.25000000  0.12500000  0.00000000       0.012
   0.37500000  0.12500000  0.00000000       0.023
   0.50000000  0.12500000  0.00000000       0.023
   0.50000000  0.25000000  0.00000000       0.012
  -0.37500000  0.25000000  0.00000000       0.012
   0.00000000 -0.00000000  0.12500000       0.004
   0.12500000 -0.00000000  0.12500000       0.023
   0.25000000 -0.00000000  0.12500000       0.023
   0.37500000 -0.00000000  0.12500000       0.023
   0.50000000 -0.00000000  0.12500000       0.012
   0.25000000  0.12500000  0.12500000       0.023
   0.37500000  0.12500000  0.12500000       0.047
   0.50000000  0.12500000  0.12500000       0.047
   0.50000000  0.25000000  0.12500000       0.023
  -0.37500000  0.25000000  0.12500000       0.023
   0.00000000 -0.00000000  0.25000000       0.004
   0.12500000 -0.00000000  0.25000000       0.023
   0.25000000 -0.00000000  0.25000000       0.023
   0.37500000 -0.00000000  0.25000000       0.023
   0.50000000 -0.00000000  0.25000000       0.012
   0.25000000  0.12500000  0.25000000       0.023
   0.37500000  0.12500000  0.25000000       0.047
   0.50000000  0.12500000  0.25000000       0.047
   0.50000000  0.25000000  0.25000000       0.023
  -0.37500000  0.25000000  0.25000000       0.023
   0.00000000  0.00000000  0.37500000       0.004
   0.12500000 -0.00000000  0.37500000       0.023
   0.25000000  0.00000000  0.37500000       0.023
   0.37500000 -0.00000000  0.37500000       0.023
   0.50000000 -0.00000000  0.37500000       0.012
   0.25000000  0.12500000  0.37500000       0.023
   0.37500000  0.12500000  0.37500000       0.047
   0.50000000  0.12500000  0.37500000       0.047
   0.50000000  0.25000000  0.37500000       0.023
  -0.37500000  0.25000000  0.37500000       0.023
   0.00000000 -0.00000000  0.50000000       0.002
   0.12500000  0.00000000  0.50000000       0.012
   0.25000000 -0.00000000  0.50000000       0.012
   0.37500000  0.00000000  0.50000000       0.012
   0.50000000 -0.00000000  0.50000000       0.006
   0.25000000  0.12500000  0.50000000       0.012
   0.37500000  0.12500000  0.50000000       0.023
   0.50000000  0.12500000  0.50000000       0.023
   0.50000000  0.25000000  0.50000000       0.012
  -0.37500000  0.25000000  0.50000000       0.012

 position of ions in fractional coordinates (direct lattice)
   0.00000000  0.00000000  0.00000000
   0.33333333  0.33333333  0.50000000

 position of ions in cartesian coordinates  (Angst):
   0.00000000  0.00000000  0.00000000
   1.59702500  0.92204281  2.58599000

 k-point     1 :   0.0000 0.0000 0.0000  plane waves:     415
 k-point     2 :   0.1250-0.0000 0.0000  plane waves:     427
 k-point     3 :   0.2500-0.0000 0.0000  plane waves:     441
 k-point     4 :   0.3750-0.0000 0.0000  plane waves:     438
 k-point     5 :   0.5000-0.0000 0.0000  plane waves:     428
 k-point     6 :   0.2500 0.1250 0.0000  plane waves:     436
 k-point     7 :   0.3750 0.1250 0.0000  plane waves:     431
 k-point     8 :   0.5000 0.1250 0.0000  plane waves:     440
 k-point     9 :   0.5000 0.2500 0.0000  plane waves:     432
 k-point    10 :  -0.3750 0.2500 0.0000  plane waves:     442
 k-point    11 :   0.0000-0.0000 0.1250  plane waves:     427
 k-point    12 :   0.1250-0.0000 0.1250  plane waves:     427
 k-point    13 :   0.2500-0.0000 0.1250  plane waves:     435
 k-point    14 :   0.3750-0.0000 0.1250  plane waves:     437
 k-point    15 :   0.5000-0.0000 0.1250  plane waves:     438
 k-point    16 :   0.2500 0.1250 0.1250  plane waves:     435
 k-point    17 :   0.3750 0.1250 0.1250  plane waves:     434
 k-point    18 :   0.5000 0.1250 0.1250  plane waves:     437
 k-point    19 :   0.5000 0.2500 0.1250  plane waves:     434
 k-point    20 :  -0.3750 0.2500 0.1250  plane waves:     442
 k-point    21 :   0.0000-0.0000 0.2500  plane waves:     434
 k-point    22 :   0.1250-0.0000 0.2500  plane waves:     434
 k-point    23 :   0.2500-0.0000 0.2500  plane waves:     428
 k-point    24 :   0.3750-0.0000 0.2500  plane waves:     439
 k-point    25 :   0.5000-0.0000 0.2500  plane waves:     444
 k-point    26 :   0.2500 0.1250 0.2500  plane waves:     435
 k-point    27 :   0.3750 0.1250 0.2500  plane waves:     433
 k-point    28 :   0.5000 0.1250 0.2500  plane waves:     435
 k-point    29 :   0.5000 0.2500 0.2500  plane waves:     436
 k-point    30 :  -0.3750 0.2500 0.2500  plane waves:     437
 k-point    31 :   0.0000 0.0000 0.3750  plane waves:     452
 k-point    32 :   0.1250-0.0000 0.3750  plane waves:     436
 k-point    33 :   0.2500 0.0000 0.3750  plane waves:     432
 k-point    34 :   0.3750-0.0000 0.3750  plane waves:     436
 k-point    35 :   0.5000-0.0000 0.3750  plane waves:     442
 k-point    36 :   0.2500 0.1250 0.3750  plane waves:     432
 k-point    37 :   0.3750 0.1250 0.3750  plane waves:     432
 k-point    38 :   0.5000 0.1250 0.3750  plane waves:     437
 k-point    39 :   0.5000 0.2500 0.3750  plane waves:     437
 k-point    40 :  -0.3750 0.2500 0.3750  plane waves:     437
 k-point    41 :   0.0000-0.0000 0.5000  plane waves:     458
 k-point    42 :   0.1250 0.0000 0.5000  plane waves:     442
 k-point    43 :   0.2500-0.0000 0.5000  plane waves:     436
 k-point    44 :   0.3750 0.0000 0.5000  plane waves:     436
 k-point    45 :   0.5000-0.0000 0.5000  plane waves:     432
 k-point    46 :   0.2500 0.1250 0.5000  plane waves:     432
 k-point    47 :   0.3750 0.1250 0.5000  plane waves:     436
 k-point    48 :   0.5000 0.1250 0.5000  plane waves:     432
 k-point    49 :   0.5000 0.2500 0.5000  plane waves:     436
 k-point    50 :  -0.3750 0.2500 0.5000  plane waves:     440

 maximum and minimum number of plane-waves per node :       458      415

 maximum number of plane-waves:       458
 maximum index in each direction:
   IXMAX=    4   IYMAX=    4   IZMAX=    6
   IXMIN=   -4   IYMIN=   -4   IZMIN=   -7

 serial   3D FFT for wavefunctions
 parallel 3D FFT for charge:
    minimum data exchange during FFTs selected (reduces bandwidth)

 Broyden mixing: mesh for mixing (old mesh)
   NGX =  9   NGY =  9   NGZ = 13
  (NGX  = 28   NGY  = 28   NGZ  = 40)
  gives a total of   1053 points

 charge density for first step will be calculated from the start-wavefunctions

 Maximum index for augmentation-charges          251 (set IRDMAX)

 initial charge from wavefunction
 First call to EWALD:  gamma=   0.496
 Maximum number of real-space cells 3x 3x 2
 Maximum number of reciprocal cells 3x 3x 4

--------------------------------------- Ionic step        1  -------------------------------------------

--------------------------------------- Iteration      1(   1)  ---------------------------------------

 eigenvalue-minimisations  :  8592
 total energy-change (2. order) :-0.3035425E+01  (-0.1343762E-06)
 number of electron       4.0000000 magnetization
 augmentation part        0.0128280 magnetization

 Broyden mixing:
  rms(total) = 0.35399E-04    rms(broyden)= 0.35397E-04
  rms(prec ) = 0.77251E-04
  weight for this iteration     100.00

 Free energy of the ion-electron system (eV)
  alpha Z        PSCENC =         3.93964164
  Ewald energy   TEWEN  =       -58.62536200
  -Hartree energ DENC   =        -0.12093653
  -exchange      EXHF   =         0.00000000
  -V(xc)+E(xc)   XCENC  =       -97.62950146
  PAW double counting   =       118.66439425      -14.95021935
  entropy T*S    EENTRO =        -0.00046430
  eigenvalues    EBANDS =        -0.38596363
  atomic energy  EATOM  =        46.07298663
  Solvation  Ediel_sol  =         0.00000000
  free energy    TOTEN  =        -3.03542476 eV

  energy without entropy =       -3.03496046  energy(sigma->0) =       -3.03519261

--------------------------------------- Iteration      1(   2)  ---------------------------------------

 eigenvalue-minimisations  :  2496
 total energy-change (2. order) :-0.3739768E-07  (-0.5724618E-10)
 number of electron       4.0000000 magnetization
 augmentation part        0.0128280 magnetization

 Free energy of the ion-electron system (eV)
  alpha Z        PSCENC =         3.93964164
  Ewald energy   TEWEN  =       -58.62536200
  -Hartree energ DENC   =        -0.12091534
  -exchange      EXHF   =         0.00000000
  -V(xc)+E(xc)   XCENC  =       -97.62954165
  PAW double counting   =       118.66505629      -14.95089178
  entropy T*S    EENTRO =        -0.00046429
  eigenvalues    EBANDS =        -0.38593428
  atomic energy  EATOM  =        46.07298663
  Solvation  Ediel_sol  =         0.00000000
  free energy    TOTEN  =        -3.03542480 eV

  energy without entropy =       -3.03496050  energy(sigma->0) =       -3.03519265

 average (electrostatic) potential at core
  the test charge radii are     1.0714
  (the norm of the test charge is              1.0000)
       1 -39.1924       2 -39.1924

 E-fermi :   2.7341     XC(G=0):  -8.5052     alpha+bet : -7.4837

 val. band max:        2.7265126983   @ k =   0.5000  -0.0000   0.3750
 cond. band min:       2.8506555722   @ k =   0.5000   0.1250   0.3750
 fundamental gap:      0.1241428739
 Fermi energy:         2.7340974183

 k-point     1 :       0.0000    0.0000    0.0000
  band No.  band energies     occupation
      1      -4.2928      2.00000
      2       0.9805      2.00000
      3       1.4449      2.00000
      4      13.6045      0.00000
      5      13.6045      0.00000
      6      13.7194      0.00000
      7      13.7194      0.00000
      8      14.5414      0.00000
      9      16.1021      0.00000
     10      17.2780      0.00000
     11      17.3109      0.00000
     12      17.7930      0.00000
     13      17.7930      0.00000
     14      18.1575      0.00000
     15      18.1576      0.00000
     16      19.0374      0.00000
     17      19.0374      0.00000
     18      19.7400      0.00000
     19      19.7400      0.00000
     20      20.0587      0.00000
     21      21.5933      0.00000
     22      22.4327      0.00000
     23      28.4159      0.00000
     24      31.3062      0.00000
     25      31.3062      0.00000
     26      34.8071      0.00000
     27      34.8072      0.00000
     28      35.8056      0.00000
     29      35.8056      0.00000
     30      35.8931      0.00000
     31      35.8931      0.00000
     32      37.8481      0.00000
     33      38.2655      0.00000
     34      39.8215      0.00000
     35      41.0416      0.00000
     36      42.3823      0.00000
     37      44.9718      0.00000
     38      48.0645      0.00000
     39      48.0647      0.00000
     40      50.6032      0.00000
     41      50.6868      0.00000
     42      50.6871      0.00000
     43      51.1920      0.00000
     44      51.1957      0.00000
     45      51.3255      0.00000
     46      51.5012      0.00000
     47      51.5032      0.00000
     48      52.1477      0.00000

[...]

 k-point    50 :      -0.3750    0.2500    0.5000
  band No.  band energies     occupation
      1       2.3735      2.00000
      2       2.3735      2.00000
      3       3.0515      0.00000
      4       3.0515      0.00000
      5       5.2401      0.00000
      6       5.2401      0.00000
      7      13.1235      0.00000
      8      13.1235      0.00000
      9      13.5527      0.00000
     10      13.5527      0.00000
     11      15.7217      0.00000
     12      15.7217      0.00000
     13      18.9980      0.00000
     14      18.9980      0.00000
     15      22.5310      0.00000
     16      22.5310      0.00000
     17      23.8170      0.00000
     18      23.8170      0.00000
     19      29.2858      0.00000
     20      29.2858      0.00000
     21      32.3114      0.00000
     22      32.3115      0.00000
     23      32.8374      0.00000
     24      32.8374      0.00000
     25      34.5413      0.00000
     26      34.5413      0.00000
     27      35.3523      0.00000
     28      35.3523      0.00000
     29      36.6547      0.00000
     30      36.6547      0.00000
     31      37.5299      0.00000
     32      37.5299      0.00000
     33      38.7564      0.00000
     34      38.7564      0.00000
     35      40.6808      0.00000
     36      40.6808      0.00000
     37      41.0201      0.00000
     38      41.0201      0.00000
     39      45.0199      0.00000
     40      45.0199      0.00000
     41      45.4649      0.00000
     42      45.4649      0.00000
     43      47.0778      0.00000
     44      47.0778      0.00000
     45      48.2547      0.00000
     46      48.2547      0.00000
     47      50.1065      0.00000
     48      50.1065      0.00000

 soft charge-density along one line, spin component           1
         0         1         2         3         4         5         6         7         8         9
 total charge-density along one line

------------------------ aborting loop because EDIFF is reached ----------------------------------------

  FORCE on cell =-STRESS in cart. coord.  units (eV):
  Direction    XX          YY          ZZ          XY          YZ          ZX
  Alpha Z     3.93964     3.93964     3.93964
  Ewald     -19.62359   -19.62359   -19.37821    -0.00000     0.00000     0.00000
  Hartree     0.03444     0.03444     0.05200     0.00000    -0.00000    -0.00000
  E(xc)      -9.70749    -9.70739    -9.69506    -0.00009    -0.00000    -0.00000
  Local      -0.42364    -0.42364    -0.40989    -0.00000     0.00000     0.00000
  n-local    13.40404    13.02615    13.12269    -0.25958     0.11085    -0.19287
  augment     0.11938     0.11938     0.12438    -0.00000     0.00000     0.00000
  Kinetic    19.21764     5.58227    12.29999    -6.58914     1.18877    -2.53114
  Fock        0.00000     0.00000     0.00000     0.00000     0.00000     0.00000
  Total      -0.04617    -0.04617     0.05555    -0.00000     0.00000     0.00000
  in kB      -1.61884    -1.61884     1.94786    -0.00000     0.00000     0.00000

 VOLUME and BASIS-vectors are now :
  energy-cutoff  :      260.00
  volume of cell :       45.70
      direct lattice vectors                 reciprocal lattice vectors
     3.194050000  0.000000000  0.000000000     0.313082137 -0.180758056  0.000000000
     1.597025000  2.766128441  0.000000000     0.000000000  0.361516112  0.000000000
     0.000000000  0.000000000  5.171980000    -0.000000000 -0.000000000  0.193349549

  length of vectors
     3.194050000  3.194050000  5.171980000     0.361516112  0.361516112  0.193349549

 FORCES acting on ions
    electron-ion (+dipol)            ewald-force                    non-local-force                 convergence-correction
   -.691E-05 -.399E-05 0.405E-07   0.324E-13 0.188E-13 -.698E-15   -.507E-18 -.175E-17 0.137E-17   -.141E-09 -.813E-10 0.299E-15
   -.102E-04 -.592E-05 -.939E-07   -.325E-13 -.188E-13 0.699E-15   0.128E-17 -.500E-18 -.731E-18   0.141E-09 0.814E-10 -.303E-15
   -.172E-04 -.991E-05 -.534E-07   -.123E-15 -.533E-16 0.699E-18   0.778E-18 -.225E-17 0.640E-18   0.481E-13 0.278E-13 -.413E-17

 POSITION                                       TOTAL-FORCE (eV/Angst)
      0.00000      0.00000      0.00000         0.000000      0.000000      0.000000
      1.59703      0.92204      2.58599        -0.000000     -0.000000     -0.000000
    total drift:                               -0.000017     -0.000010     -0.000000

  FREE ENERGIE OF THE ION-ELECTRON SYSTEM (eV)
  free  energy   TOTEN  =        -3.03542480 eV

  energy  without entropy=       -3.03496050  energy(sigma->0) =       -3.03519265

 writing wavefunctions