 vasp.6.4.3 19Mar24 (build Jun 26 2024 13:02:28) complex

 executed on             LinuxIFC date 2025.08.08  18:58:20

 INCAR:
   ENCUT = 648.7442
   IBRION = -1
   ISMEAR = 0
   ISYM = 2
   LCHARG = True
   LWAVE = True
   SIGMA = 0.05
   SYSTEM = Li

 POTCAR:  PAW_PBE Li_sv 10Sep2004
|           W    W    AA    RRRRR   N    N  II  N    N   GGGG   !!!           |
|           W    W   A  A   R    R  NN   N  II  NN   N  G    G  !!!           |
|           W    W  A    A  R    R  N N  N  II  N N  N  G       !!!           |
|           W WW W  AAAAAA  RRRRR   N  N N  II  N  N N  G  GGG   !            |
|           WW  WW  A    A  R   R   N   NN  II  N   NN  G    G                |
|           W    W  A    A  R    R  N    N  II  N    N   GGGG   !!!           |
|     For optimal performance we recommend to set                             |
|       NCORE = 2 up to number-of-cores-per-socket                            |
|     This setting can greatly improve the performance of VASP for DFT.       |
|     The default, NCORE=1 might be grossly inefficient on modern             |
|     multi-core architectures or massively parallel machines. Do your        |
|     Unfortunately you need to use the default for GW and RPA                |
|     calculations (for HF NCORE is supported but not extensively tested      |
|     yet).                                                                   |

 POTCAR:  PAW_PBE Li_sv 10Sep2004
   VRHFIN =Li: 1s2s2p

   TITEL  = PAW_PBE Li_sv 10Sep2004
   POMASS =    7.010; ZVAL   =    3.000    mass and valenz
   ENMAX  =  499.034; ENMIN  =  374.276 eV

PAW_PBE Li_sv 10Sep2004                 :

 POSCAR: Li3
  positions in direct lattice

 exchange-correlation table for PE
   RHO(1)=    0.500       N(1)  =     2000
   RHO(2)=  100.500       N(2)  =     4000

 ion  position               nearest neighbor table
   1  0.000  0.000  0.000-
   2  0.222  0.222  0.222-
   3  0.778  0.778  0.778-

  LATTYP: Found a trigonal (rhomboedric) cell.
 ALAT       =     7.6400400000
 COS(alpha) =     0.9189977028

  Lattice vectors:

 A1 = (   3.0121842099,   0.0000000000,   7.0211792092)
 A2 = (   1.4425188552,   2.6443133451,   7.0211792092)
 A3 = (   0.0000000000,   0.0000000000,   7.6400400000)

Analysis of symmetry for initial positions (statically):
 Subroutine PRICEL returns:
 Original cell was already a primitive cell.

 Routine SETGRP: Setting up the symmetry group for a
 trigonal (rhombohedral) supercell.

 Subroutine GETGRP returns: Found 12 space group operations
 (whereof 12 operations were pure point group operations)
 out of a pool of 12 trial point group operations.

The static configuration has the point symmetry D_3d.

Analysis of symmetry for dynamics (positions and initial velocities):
 Subroutine PRICEL returns:
 Original cell was already a primitive cell.

 Routine SETGRP: Setting up the symmetry group for a
 trigonal (rhombohedral) supercell.

 Subroutine GETGRP returns: Found 12 space group operations
 (whereof 12 operations were pure point group operations)
 out of a pool of 12 trial point group operations.

The dynamic configuration has the point symmetry D_3d.

 Subroutine INISYM returns: Found 12 space group operations
 (whereof 12 operations are pure point group operations),
 and found     1 'primitive' translations

                                     Primitive cell

  volume of cell :      60.8541

  direct lattice vectors                    reciprocal lattice vectors
     3.012184210  0.000000000  7.021179209     0.331985008 -0.181103588  0.000000000
     1.442518855  2.644313345  7.021179209     0.000000000  0.378170008  0.000000000
     0.000000000  0.000000000  7.640040000    -0.305093460 -0.181103588  0.130889367

  length of vectors
     7.640040000  7.640040000  7.640040000     0.378170008  0.378170008  0.378170008

  position of ions in fractional coordinates (direct lattice)
     0.000000000  0.000000000  0.000000000
     0.222220000  0.222220000  0.222220000
     0.777780000  0.777780000  0.777780000

  ion indices of the primitive-cell ions
   primitive index   ion index
                 1           1
                 2           2
                 3           3

 KPOINTS: Automatic kpoint scheme

Automatic generation of k-mesh.
 Grid dimensions read from file:
 generate k-points for:   12   12   12

 Generating k-lattice:

  Cartesian coordinates                     Fractional coordinates (reciprocal lattice)
     0.027665417 -0.015091966  0.000000000     0.083333333 -0.000000000  0.000000000
     0.000000000  0.031514167  0.000000000     0.000000000  0.083333333  0.000000000
    -0.025424455 -0.015091966  0.010907447    -0.000000000 -0.000000000  0.083333333

  Length of vectors
     0.031514167  0.031514167  0.031514167

  Shift w.r.t. Gamma in fractional coordinates (k-lattice)
     0.000000000  0.000000000  0.000000000

 Subroutine IBZKPT returns following result:

 Found    189 irreducible k-points:

 Following reciprocal coordinates:
            Coordinates               Weight
  0.000000  0.000000  0.000000      1.000000
  0.083333  0.000000  0.000000      6.000000
  0.166667  0.000000  0.000000      6.000000
  0.250000  0.000000  0.000000      6.000000
  0.333333  0.000000  0.000000      6.000000
  0.416667  0.000000  0.000000      6.000000
  0.500000  0.000000  0.000000      3.000000
  0.083333  0.083333  0.000000      6.000000
  0.166667  0.083333  0.000000     12.000000
  0.250000  0.083333  0.000000     12.000000
  0.333333  0.083333  0.000000     12.000000
  0.416667  0.083333  0.000000     12.000000
  0.500000  0.083333  0.000000     12.000000
 -0.416667  0.083333  0.000000     12.000000
 -0.333333  0.083333  0.000000     12.000000
 -0.250000  0.083333  0.000000     12.000000
 -0.166667  0.083333  0.000000     12.000000
 -0.083333  0.083333  0.000000      6.000000
  0.166667  0.166667  0.000000      6.000000
  0.250000  0.166667  0.000000     12.000000
  0.333333  0.166667  0.000000     12.000000
  0.416667  0.166667  0.000000     12.000000
  0.500000  0.166667  0.000000     12.000000
 -0.416667  0.166667  0.000000     12.000000
 -0.333333  0.166667  0.000000     12.000000
 -0.250000  0.166667  0.000000     12.000000
 -0.166667  0.166667  0.000000      6.000000
  0.250000  0.250000  0.000000      6.000000
  0.333333  0.250000  0.000000     12.000000
  0.416667  0.250000  0.000000     12.000000
  0.500000  0.250000  0.000000     12.000000
 -0.416667  0.250000  0.000000     12.000000
 -0.333333  0.250000  0.000000     12.000000
 -0.250000  0.250000  0.000000      6.000000
  0.333333  0.333333  0.000000      6.000000
  0.416667  0.333333  0.000000     12.000000
  0.500000  0.333333  0.000000     12.000000
 -0.416667  0.333333  0.000000     12.000000
 -0.333333  0.333333  0.000000      6.000000
  0.416667  0.416667  0.000000      6.000000
  0.500000  0.416667  0.000000     12.000000
 -0.416667  0.416667  0.000000      6.000000
  0.500000  0.500000  0.000000      3.000000
  0.083333  0.083333  0.083333      2.000000
  0.166667  0.083333  0.083333      6.000000
  0.250000  0.083333  0.083333      6.000000
  0.333333  0.083333  0.083333      6.000000
  0.416667  0.083333  0.083333      6.000000
  0.500000  0.083333  0.083333      6.000000
 -0.416667  0.083333  0.083333      6.000000
 -0.333333  0.083333  0.083333      6.000000
 -0.250000  0.083333  0.083333      6.000000
 -0.166667  0.083333  0.083333      6.000000
 -0.083333  0.083333  0.083333      6.000000
  0.166667  0.166667  0.083333      6.000000
  0.250000  0.166667  0.083333     12.000000
  0.333333  0.166667  0.083333     12.000000
  0.416667  0.166667  0.083333     12.000000
  0.500000  0.166667  0.083333     12.000000
 -0.416667  0.166667  0.083333     12.000000
[...]
 -0.333333  0.333333  0.333333      6.000000
  0.416667  0.416667  0.333333      6.000000
  0.500000  0.416667  0.333333     12.000000
 -0.416667  0.416667  0.333333     12.000000
 -0.333333  0.416667  0.333333     12.000000
  0.500000  0.500000  0.333333      6.000000
 -0.416667  0.500000  0.333333     12.000000
 -0.333333  0.500000  0.333333      6.000000
 -0.416667 -0.416667  0.333333      6.000000
  0.416667  0.416667  0.416667      2.000000
  0.500000  0.416667  0.416667      6.000000
 -0.416667  0.416667  0.416667      6.000000
  0.500000  0.500000  0.416667      6.000000
 -0.416667  0.500000  0.416667      6.000000
  0.500000  0.500000  0.500000      1.000000

 Following cartesian coordinates:
            Coordinates               Weight
  0.000000  0.000000  0.000000      1.000000
  0.027665 -0.015092  0.000000      6.000000
  0.055331 -0.030184  0.000000      6.000000
  0.082996 -0.045276  0.000000      6.000000
  0.110662 -0.060368  0.000000      6.000000
  0.138327 -0.075460  0.000000      6.000000
  0.165993 -0.090552  0.000000      3.000000
  0.027665  0.016422  0.000000      6.000000
  0.055331  0.001330  0.000000     12.000000
  0.082996 -0.013762  0.000000     12.000000
  0.110662 -0.028854  0.000000     12.000000
  0.138327 -0.043946  0.000000     12.000000
  0.165993 -0.059038  0.000000     12.000000
 -0.138327  0.106974  0.000000     12.000000
 -0.110662  0.091882  0.000000     12.000000
 -0.082996  0.076790  0.000000     12.000000
 -0.055331  0.061698  0.000000     12.000000
 -0.027665  0.046606  0.000000      6.000000
  0.055331  0.032844  0.000000      6.000000
  0.082996  0.017752  0.000000     12.000000
  0.110662  0.002660  0.000000     12.000000
  0.138327 -0.012431  0.000000     12.000000
  0.165993 -0.027523  0.000000     12.000000
 -0.138327  0.138488  0.000000     12.000000
 -0.110662  0.123396  0.000000     12.000000
 -0.082996  0.108304  0.000000     12.000000
 -0.055331  0.093212  0.000000      6.000000
  0.082996  0.049267  0.000000      6.000000
  0.110662  0.034175  0.000000     12.000000
  0.138327  0.019083  0.000000     12.000000
  0.165993  0.003991  0.000000     12.000000
 -0.138327  0.170002  0.000000     12.000000
 -0.110662  0.154910  0.000000     12.000000
 -0.082996  0.139818  0.000000      6.000000
  0.110662  0.065689  0.000000      6.000000
  0.138327  0.050597  0.000000     12.000000
  0.165993  0.035505  0.000000     12.000000
 -0.138327  0.201516  0.000000     12.000000
 -0.110662  0.186425  0.000000      6.000000
  0.138327  0.082111  0.000000      6.000000
  0.165993  0.067019  0.000000     12.000000
 -0.138327  0.233031  0.000000      6.000000
  0.165993  0.098533  0.000000      3.000000
  0.002241  0.001330  0.010907      2.000000
  0.029906 -0.013762  0.010907      6.000000
  0.057572 -0.028854  0.010907      6.000000
  0.085237 -0.043946  0.010907      6.000000
  0.112903 -0.059038  0.010907      6.000000
  0.140568 -0.074130  0.010907      6.000000
 -0.163752  0.091882  0.010907      6.000000
 -0.136086  0.076790  0.010907      6.000000
 -0.108421  0.061698  0.010907      6.000000
 -0.080755  0.046606  0.010907      6.000000
 -0.053090  0.031514  0.010907      6.000000
  0.029906  0.017752  0.010907      6.000000
  0.057572  0.002660  0.010907     12.000000
  0.085237 -0.012431  0.010907     12.000000
  0.112903 -0.027523  0.010907     12.000000
  0.140568 -0.042615  0.010907     12.000000
 -0.163752  0.123396  0.010907     12.000000
[...]
[...]
   0.50000000  0.41666667  0.00000000       0.007
  -0.41666667  0.41666667  0.00000000       0.003
   0.50000000  0.50000000  0.00000000       0.002
   0.08333333  0.08333333  0.08333333       0.001
   0.16666667  0.08333333  0.08333333       0.003
   0.25000000  0.08333333  0.08333333       0.003
   0.33333333  0.08333333  0.08333333       0.003
   0.41666667  0.08333333  0.08333333       0.003
   0.50000000  0.08333333  0.08333333       0.003
  -0.41666667  0.08333333  0.08333333       0.003
  -0.33333333  0.08333333  0.08333333       0.003
  -0.25000000  0.08333333  0.08333333       0.003
  -0.16666667  0.08333333  0.08333333       0.003
  -0.08333333  0.08333333  0.08333333       0.003
   0.16666667  0.16666667  0.08333333       0.003
   0.25000000  0.16666667  0.08333333       0.007
   0.33333333  0.16666667  0.08333333       0.007
   0.41666667  0.16666667  0.08333333       0.007
   0.50000000  0.16666667  0.08333333       0.007
  -0.41666667  0.16666667  0.08333333       0.007
[...]
  -0.33333333  0.33333333  0.33333333       0.003
   0.41666667  0.41666667  0.33333333       0.003
   0.50000000  0.41666667  0.33333333       0.007
  -0.41666667  0.41666667  0.33333333       0.007
  -0.33333333  0.41666667  0.33333333       0.007
   0.50000000  0.50000000  0.33333333       0.003
  -0.41666667  0.50000000  0.33333333       0.007
  -0.33333333  0.50000000  0.33333333       0.003
  -0.41666667 -0.41666667  0.33333333       0.003
   0.41666667  0.41666667  0.41666667       0.001
   0.50000000  0.41666667  0.41666667       0.003
  -0.41666667  0.41666667  0.41666667       0.003
   0.50000000  0.50000000  0.41666667       0.003
  -0.41666667  0.50000000  0.41666667       0.003
   0.50000000  0.50000000  0.50000000       0.001

 position of ions in fractional coordinates (direct lattice)
   0.00000000  0.00000000  0.00000000
   0.22222000  0.22222000  0.22222000
   0.77778000  0.77778000  0.77778000

 position of ions in cartesian coordinates  (Angst):
   0.00000000  0.00000000  0.00000000
   0.98992412  0.58761931  4.81826258
   3.46477895  2.05669403 16.86413584

 k-point     1 :   0.0000 0.0000 0.0000  plane waves:    2281
 k-point     2 :   0.0833 0.0000 0.0000  plane waves:    2285
 k-point     3 :   0.1667 0.0000 0.0000  plane waves:    2300
 k-point     4 :   0.2500 0.0000 0.0000  plane waves:    2297
 k-point     5 :   0.3333 0.0000 0.0000  plane waves:    2289
 k-point     6 :   0.4167 0.0000 0.0000  plane waves:    2282
 k-point     7 :   0.5000 0.0000 0.0000  plane waves:    2290
 k-point     8 :   0.0833 0.0833 0.0000  plane waves:    2291
 k-point     9 :   0.1667 0.0833 0.0000  plane waves:    2297
 k-point    10 :   0.2500 0.0833 0.0000  plane waves:    2296
 k-point    11 :   0.3333 0.0833 0.0000  plane waves:    2283
 k-point    12 :   0.4167 0.0833 0.0000  plane waves:    2279
 k-point    13 :   0.5000 0.0833 0.0000  plane waves:    2278
 k-point    14 :  -0.4167 0.0833 0.0000  plane waves:    2282
 k-point    15 :  -0.3333 0.0833 0.0000  plane waves:    2277
 k-point    16 :  -0.2500 0.0833 0.0000  plane waves:    2281
 k-point    17 :  -0.1667 0.0833 0.0000  plane waves:    2289
 k-point    18 :  -0.0833 0.0833 0.0000  plane waves:    2295
 k-point    19 :   0.1667 0.1667 0.0000  plane waves:    2294
 k-point    20 :   0.2500 0.1667 0.0000  plane waves:    2292
 k-point    21 :   0.3333 0.1667 0.0000  plane waves:    2286
 k-point    22 :   0.4167 0.1667 0.0000  plane waves:    2275
 k-point    23 :   0.5000 0.1667 0.0000  plane waves:    2273
 k-point    24 :  -0.4167 0.1667 0.0000  plane waves:    2278
 k-point    25 :  -0.3333 0.1667 0.0000  plane waves:    2278
 k-point    26 :  -0.2500 0.1667 0.0000  plane waves:    2278
 k-point    27 :  -0.1667 0.1667 0.0000  plane waves:    2281
 k-point    28 :   0.2500 0.2500 0.0000  plane waves:    2294
 k-point    29 :   0.3333 0.2500 0.0000  plane waves:    2282
 k-point    30 :   0.4167 0.2500 0.0000  plane waves:    2282
 k-point    31 :   0.5000 0.2500 0.0000  plane waves:    2279
 k-point    32 :  -0.4167 0.2500 0.0000  plane waves:    2271
 k-point    33 :  -0.3333 0.2500 0.0000  plane waves:    2273
 k-point    34 :  -0.2500 0.2500 0.0000  plane waves:    2274
 k-point    35 :   0.3333 0.3333 0.0000  plane waves:    2279
 k-point    36 :   0.4167 0.3333 0.0000  plane waves:    2280
 k-point    37 :   0.5000 0.3333 0.0000  plane waves:    2276
 k-point    38 :  -0.4167 0.3333 0.0000  plane waves:    2271
 k-point    39 :  -0.3333 0.3333 0.0000  plane waves:    2274
 k-point    40 :   0.4167 0.4167 0.0000  plane waves:    2278
 k-point    41 :   0.5000 0.4167 0.0000  plane waves:    2276
 k-point    42 :  -0.4167 0.4167 0.0000  plane waves:    2264
 k-point    43 :   0.5000 0.5000 0.0000  plane waves:    2286
 k-point    44 :   0.0833 0.0833 0.0833  plane waves:    2278
 k-point    45 :   0.1667 0.0833 0.0833  plane waves:    2283
 k-point    46 :   0.2500 0.0833 0.0833  plane waves:    2299
 k-point    47 :   0.3333 0.0833 0.0833  plane waves:    2307
 k-point    48 :   0.4167 0.0833 0.0833  plane waves:    2287
 k-point    49 :   0.5000 0.0833 0.0833  plane waves:    2282
 k-point    50 :  -0.4167 0.0833 0.0833  plane waves:    2291
 k-point    51 :  -0.3333 0.0833 0.0833  plane waves:    2280
 k-point    52 :  -0.2500 0.0833 0.0833  plane waves:    2292
 k-point    53 :  -0.1667 0.0833 0.0833  plane waves:    2287
 k-point    54 :  -0.0833 0.0833 0.0833  plane waves:    2300
 k-point    55 :   0.1667 0.1667 0.0833  plane waves:    2290
 k-point    56 :   0.2500 0.1667 0.0833  plane waves:    2298
 k-point    57 :   0.3333 0.1667 0.0833  plane waves:    2300
 k-point    58 :   0.4167 0.1667 0.0833  plane waves:    2284
 k-point    59 :   0.5000 0.1667 0.0833  plane waves:    2281
 k-point    60 :  -0.4167 0.1667 0.0833  plane waves:    2280
[...]
 k-point   175 :  -0.3333 0.3333 0.3333  plane waves:    2288
 k-point   176 :   0.4167 0.4167 0.3333  plane waves:    2298
 k-point   177 :   0.5000 0.4167 0.3333  plane waves:    2302
 k-point   178 :  -0.4167 0.4167 0.3333  plane waves:    2303
 k-point   179 :  -0.3333 0.4167 0.3333  plane waves:    2289
 k-point   180 :   0.5000 0.5000 0.3333  plane waves:    2301
 k-point   181 :  -0.4167 0.5000 0.3333  plane waves:    2301
 k-point   182 :  -0.3333 0.5000 0.3333  plane waves:    2286
 k-point   183 :  -0.4167-0.4167 0.3333  plane waves:    2305
 k-point   184 :   0.4167 0.4167 0.4167  plane waves:    2284
 k-point   185 :   0.5000 0.4167 0.4167  plane waves:    2288
 k-point   186 :  -0.4167 0.4167 0.4167  plane waves:    2297
 k-point   187 :   0.5000 0.5000 0.4167  plane waves:    2296
 k-point   188 :  -0.4167 0.5000 0.4167  plane waves:    2306
 k-point   189 :   0.5000 0.5000 0.5000  plane waves:    2286

 maximum and minimum number of plane-waves per node :      2308     2264

 maximum number of plane-waves:      2308
 maximum index in each direction:
   IXMAX=   16   IYMAX=   16   IZMAX=   15
   IXMIN=  -16   IYMIN=  -16   IZMIN=  -16

 serial   3D FFT for wavefunctions
 parallel 3D FFT for charge:
    minimum data exchange during FFTs selected (reduces bandwidth)

 Broyden mixing: mesh for mixing (old mesh)
   NGX = 31   NGY = 31   NGZ = 31
  (NGX  = 96   NGY  = 96   NGZ  = 96)
  gives a total of  29791 points

 charge density for first step will be calculated from the start-wavefunctions

 Maximum index for augmentation-charges          629 (set IRDMAX)

 initial charge from wavefunction
 First call to EWALD:  gamma=   0.451
 Maximum number of real-space cells 4x 4x 4
 Maximum number of reciprocal cells 5x 5x 5

--------------------------------------- Ionic step        1  -------------------------------------------

--------------------------------------- Iteration      1(   1)  ---------------------------------------

 eigenvalue-minimisations  : 11904
 total energy-change (2. order) :-0.5724158E+01  (-0.6615170E-07)
 number of electron       9.0000029 magnetization
 augmentation part        2.7591836 magnetization

 Broyden mixing:
  rms(total) = 0.58732E-04    rms(broyden)= 0.58652E-04
  rms(prec ) = 0.19835E-03
  weight for this iteration     100.00

 Free energy of the ion-electron system (eV)
  alpha Z        PSCENC =         3.40451590
  Ewald energy   TEWEN  =      -205.86489729
  -Hartree energ DENC   =      -123.75039975
  -exchange      EXHF   =         0.00000000
  -V(xc)+E(xc)   XCENC  =        36.19367556
  PAW double counting   =       243.20799200     -289.63039598
  entropy T*S    EENTRO =        -0.00120596
  eigenvalues    EBANDS =      -277.61904146
  atomic energy  EATOM  =       608.33559851
  Solvation  Ediel_sol  =         0.00000000
  free energy    TOTEN  =        -5.72415847 eV

  energy without entropy =       -5.72295251  energy(sigma->0) =       -5.72355549

--------------------------------------- Iteration      1(   2)  ---------------------------------------

 eigenvalue-minimisations  : 10416
 total energy-change (2. order) : 0.3961350E-07  (-0.3018345E-07)
 number of electron       9.0000029 magnetization
 augmentation part        2.7591836 magnetization

 Free energy of the ion-electron system (eV)
  alpha Z        PSCENC =         3.40451590
  Ewald energy   TEWEN  =      -205.86489729
  -Hartree energ DENC   =      -123.75079506
  -exchange      EXHF   =         0.00000000
  -V(xc)+E(xc)   XCENC  =        36.19372800
  PAW double counting   =       243.20965341     -289.63221691
  entropy T*S    EENTRO =        -0.00120595
  eigenvalues    EBANDS =      -277.61853905
  atomic energy  EATOM  =       608.33559851
  Solvation  Ediel_sol  =         0.00000000
  free energy    TOTEN  =        -5.72415843 eV

  energy without entropy =       -5.72295248  energy(sigma->0) =       -5.72355546

 average (electrostatic) potential at core
  the test charge radii are     0.7079
  (the norm of the test charge is              1.0000)
       1 -64.9929       2 -64.9909       3 -64.9909

 E-fermi :   0.6088     XC(G=0):  -7.0428     alpha+bet : -7.3740

 val. band max:        0.6031987939   @ k =  -0.2500   0.3333   0.2500
 cond. band min:       0.6214215466   @ k =  -0.2500   0.2500   0.2500
 fundamental gap:      0.0182227527
 Fermi energy:         0.6087674300

 k-point     1 :       0.0000    0.0000    0.0000
  band No.  band energies     occupation
      1     -45.9043      2.00000
      2     -45.8908      2.00000
      3     -45.8895      2.00000
      4      -2.9405      2.00000
      5      -0.9434      2.00000
      6      -0.9424      2.00000
      7       6.4740      0.00000
      8       6.4755      0.00000
      9      13.2815      0.00000
     10      13.2815      0.00000
     11      13.4201      0.00000
     12      13.4201      0.00000
     13      14.5168      0.00000
     14      14.5168      0.00000
     15      15.2449      0.00000
     16      17.4157      0.00000
     17      17.4157      0.00000
     18      17.6718      0.00000
     19      17.9872      0.00000
     20      18.6790      0.00000
     21      18.6790      0.00000
     22      19.0427      0.00000
     23      19.7201      0.00000
     24      20.1267      0.00000
     25      20.1267      0.00000
     26      21.3787      0.00000
     27      21.9211      0.00000
     28      22.9423      0.00000
     29      22.9423      0.00000
     30      22.9671      0.00000
     31      23.2803      0.00000
     32      23.2803      0.00000
     33      25.4087      0.00000
     34      29.0611      0.00000
     35      29.2284      0.00000
     36      29.2284      0.00000
     37      29.9440      0.00000
     38      29.9440      0.00000
     39      30.3888      0.00000
     40      34.1211      0.00000
     41      34.1211      0.00000
     42      34.4411      0.00000
     43      34.4411      0.00000
     44      34.6933      0.00000
     45      36.3721      0.00000
     46      37.2282      0.00000
     47      37.7287      0.00000
     48      39.0134      0.00000

[...]

 k-point   189 :       0.5000    0.5000    0.5000
  band No.  band energies     occupation
      1     -45.9004      2.00000
      2     -45.8989      2.00000
      3     -45.8854      2.00000
      4      -2.4351      2.00000
      5      -2.4349      2.00000
      6       0.6818      0.03883
      7       3.6473      0.00000
      8      11.3773      0.00000
      9      11.3894      0.00000
     10      12.9599      0.00000
     11      12.9599      0.00000
     12      14.0156      0.00000
     13      14.0156      0.00000
     14      14.2930      0.00000
     15      14.2930      0.00000
     16      17.6001      0.00000
     17      17.6001      0.00000
     18      17.8674      0.00000
     19      18.0278      0.00000
     20      18.6414      0.00000
     21      18.6414      0.00000
     22      18.6859      0.00000
     23      19.1764      0.00000
     24      19.1764      0.00000
     25      19.7212      0.00000
     26      20.9309      0.00000
     27      22.4328      0.00000
     28      24.2092      0.00000
     29      24.2092      0.00000
     30      24.2243      0.00000
     31      24.2243      0.00000
     32      25.7925      0.00000
     33      27.5868      0.00000
     34      27.5868      0.00000
     35      27.7045      0.00000
     36      28.1732      0.00000
     37      28.1732      0.00000
     38      28.2985      0.00000
     39      28.7187      0.00000
     40      31.0721      0.00000
     41      34.9245      0.00000
     42      35.9720      0.00000
     43      36.1176      0.00000
     44      36.1176      0.00000
     45      36.7934      0.00000
     46      36.7934      0.00000
     47      39.5516      0.00000
     48      42.0692      0.00000

 soft charge-density along one line, spin component           1
         0         1         2         3         4         5         6         7         8         9
 total charge-density along one line

------------------------ aborting loop because EDIFF is reached ----------------------------------------

  FORCE on cell =-STRESS in cart. coord.  units (eV):
  Direction    XX          YY          ZZ          XY          YZ          ZX
  Alpha Z     3.40452     3.40452     3.40452
  Ewald     -68.98368   -69.01559   -67.86568     0.02925     0.14236     0.23982
  Hartree    41.13850    41.12862    41.48443     0.00905     0.04405     0.07420
  E(xc)     -39.81285   -39.81283   -39.81352    -0.00002    -0.00009    -0.00014
  Local     -57.89537   -57.86034   -59.12260    -0.03210    -0.15626    -0.26325
  n-local   -56.90652   -57.79273   -57.33973    -0.09538     0.07948    -0.16064
  augment    51.47364    51.47389    51.46474    -0.00023    -0.00113    -0.00191
  Kinetic   130.63282   125.07140   127.86620    -0.71483     0.39941    -0.77036
  Fock        0.00000     0.00000     0.00000     0.00000     0.00000     0.00000
  Total      -0.08039    -0.07943    -0.11384    -0.00088    -0.00426    -0.00718
  in kB      -2.11641    -2.09127    -2.99721    -0.02304    -0.11215    -0.18894

 VOLUME and BASIS-vectors are now :
  energy-cutoff  :      648.74
  volume of cell :       60.85
      direct lattice vectors                 reciprocal lattice vectors
     3.012184210  0.000000000  7.021179209     0.331985008 -0.181103588  0.000000000
     1.442518855  2.644313345  7.021179209     0.000000000  0.378170008  0.000000000
     0.000000000  0.000000000  7.640040000    -0.305093460 -0.181103588  0.130889367

  length of vectors
     7.640040000  7.640040000  7.640040000     0.378170008  0.378170008  0.378170008

 FORCES acting on ions
    electron-ion (+dipol)            ewald-force                    non-local-force                 convergence-correction
   -.391E-15 -.123E-14 -.787E-14   0.000E+00 -.222E-14 -.711E-14   -.629E-24 -.174E-25 -.161E-23   -.428E-15 0.148E-15 0.292E-14
   -.218E-02 -.129E-02 -.106E-01   0.224E-02 0.133E-02 0.109E-01   -.454E-04 -.270E-04 -.221E-03   -.306E-05 -.182E-05 -.149E-04
   0.218E-02 0.129E-02 0.106E-01   -.224E-02 -.133E-02 -.109E-01   0.454E-04 0.270E-04 0.221E-03   0.306E-05 0.182E-05 0.149E-04
   0.620E-12 -.777E-13 0.890E-11   0.139E-14 0.230E-16 0.645E-15   0.881E-19 -.444E-18 0.184E-17   -.910E-15 0.329E-14 0.167E-14

 POSITION                                       TOTAL-FORCE (eV/Angst)
      0.00000      0.00000      0.00000        -0.000000     -0.000000     -0.000000
      0.98992      0.58762      4.81826         0.000014      0.000008      0.000066
      3.46478      2.05669     16.86414        -0.000014     -0.000008     -0.000066
    total drift:                                0.000000     -0.000000      0.000000

  FREE ENERGIE OF THE ION-ELECTRON SYSTEM (eV)
  free  energy   TOTEN  =        -5.72415843 eV

  energy  without entropy=       -5.72295248  energy(sigma->0) =       -5.72355546

 writing wavefunctions