 vasp.6.4.3 19Mar24 (build Jun 26 2024 13:02:28) complex

 executed on             LinuxIFC date 2025.08.08  18:52:14

 INCAR:
   ENCUT = 337.0432
   IBRION = -1
   ISMEAR = 0
   ISYM = 2
   LCHARG = True
   LWAVE = True
   SIGMA = 0.05
   SYSTEM = K

 POTCAR:  PAW_PBE K_sv 06Sep2000
|           W    W    AA    RRRRR   N    N  II  N    N   GGGG   !!!           |
|           W    W   A  A   R    R  NN   N  II  NN   N  G    G  !!!           |
|           W    W  A    A  R    R  N N  N  II  N N  N  G       !!!           |
|           W WW W  AAAAAA  RRRRR   N  N N  II  N  N N  G  GGG   !            |
|           WW  WW  A    A  R   R   N   NN  II  N   NN  G    G                |
|           W    W  A    A  R    R  N    N  II  N    N   GGGG   !!!           |
|     For optimal performance we recommend to set                             |
|       NCORE = 2 up to number-of-cores-per-socket                            |
|     This setting can greatly improve the performance of VASP for DFT.       |
|     The default, NCORE=1 might be grossly inefficient on modern             |
|     multi-core architectures or massively parallel machines. Do your        |
|     Unfortunately you need to use the default for GW and RPA                |
|     calculations (for HF NCORE is supported but not extensively tested      |
|     yet).                                                                   |

 POTCAR:  PAW_PBE K_sv 06Sep2000
   VRHFIN =K:  3s3p4s

   TITEL  = PAW_PBE K_sv 06Sep2000
   POMASS =   39.098; ZVAL   =    9.000    mass and valenz
   ENMAX  =  259.264; ENMIN  =  194.448 eV

PAW_PBE K_sv 06Sep2000                  :

 POSCAR: K2
  positions in direct lattice

 exchange-correlation table for PE
   RHO(1)=    0.500       N(1)  =     2000
   RHO(2)=  100.500       N(2)  =     4000

 ion  position               nearest neighbor table
   1  0.000  0.000  0.000-
   2  0.500  0.500  0.500-

  LATTYP: Found a simple cubic cell.
 ALAT       =     5.2858900000

  Lattice vectors:

 A1 = (   5.2858900000,   0.0000000000,   0.0000000000)
 A2 = (   0.0000000000,   5.2858900000,   0.0000000000)
 A3 = (   0.0000000000,   0.0000000000,   5.2858900000)

Analysis of symmetry for initial positions (statically):
 Subroutine PRICEL returns following result:

  LATTYP: Found a body centered cubic cell.
 ALAT       =     5.2858900000

[...]

   2 primitive cells build up your supercell.

 Routine SETGRP: Setting up the symmetry group for a
 simple cubic supercell.

 Subroutine GETGRP returns: Found 48 space group operations
 (whereof 48 operations were pure point group operations)
 out of a pool of 48 trial point group operations.

The static configuration has the point symmetry O_h .

Analysis of symmetry for dynamics (positions and initial velocities):
 Subroutine PRICEL returns following result:

  LATTYP: Found a body centered cubic cell.
 ALAT       =     5.2858900000

  Lattice vectors:

 A1 = (   2.6429450000,   2.6429450000,  -2.6429450000)
 A2 = (  -2.6429450000,   2.6429450000,   2.6429450000)
 A3 = (   2.6429450000,  -2.6429450000,   2.6429450000)

   2 primitive cells build up your supercell.

 Routine SETGRP: Setting up the symmetry group for a
 simple cubic supercell.

 Subroutine GETGRP returns: Found 48 space group operations
 (whereof 48 operations were pure point group operations)
 out of a pool of 48 trial point group operations.

The dynamic configuration has the point symmetry O_h .

 Subroutine INISYM returns: Found 48 space group operations
 (whereof 48 operations are pure point group operations),
 and found     2 'primitive' translations

                                     Primitive cell

  volume of cell :      73.8456

  direct lattice vectors                    reciprocal lattice vectors
     2.642945000  2.642945000 -2.642945000     0.189182900  0.189182900 -0.000000000
    -2.642945000  2.642945000  2.642945000    -0.000000000  0.189182900  0.189182900
     2.642945000 -2.642945000  2.642945000     0.189182900 -0.000000000  0.189182900

  length of vectors
     4.577715022  4.577715022  4.577715022     0.267545023  0.267545023  0.267545023

  position of ions in fractional coordinates (direct lattice)
     0.000000000  0.000000000  0.000000000

  ion indices of the primitive-cell ions
   primitive index   ion index
                 1           1

 KPOINTS: Automatic kpoint scheme

Automatic generation of k-mesh.
 Grid dimensions read from file:
 generate k-points for:    8    8    8

 Generating k-lattice:

  Cartesian coordinates                     Fractional coordinates (reciprocal lattice)
     0.023647863 -0.000000000  0.000000000     0.125000000  0.000000000  0.000000000
     0.000000000  0.023647863  0.000000000     0.000000000  0.125000000  0.000000000
    -0.000000000 -0.000000000  0.023647863    -0.000000000 -0.000000000  0.125000000

  Length of vectors
     0.023647863  0.023647863  0.023647863

  Shift w.r.t. Gamma in fractional coordinates (k-lattice)
     0.000000000  0.000000000  0.000000000

 Subroutine IBZKPT returns following result:

 Found     35 irreducible k-points:

 Following reciprocal coordinates:
            Coordinates               Weight
  0.000000  0.000000  0.000000      1.000000
  0.125000  0.000000  0.000000      6.000000
  0.250000  0.000000  0.000000      6.000000
  0.375000  0.000000  0.000000      6.000000
  0.500000  0.000000  0.000000      3.000000
  0.125000  0.125000  0.000000     12.000000
  0.250000  0.125000  0.000000     24.000000
  0.375000  0.125000  0.000000     24.000000
  0.500000  0.125000  0.000000     12.000000
  0.250000  0.250000  0.000000     12.000000
  0.375000  0.250000  0.000000     24.000000
  0.500000  0.250000  0.000000     12.000000
  0.375000  0.375000  0.000000     12.000000
  0.500000  0.375000  0.000000     12.000000
  0.500000  0.500000  0.000000      3.000000
  0.125000  0.125000  0.125000      8.000000
  0.250000  0.125000  0.125000     24.000000
  0.375000  0.125000  0.125000     24.000000
  0.500000  0.125000  0.125000     12.000000
  0.250000  0.250000  0.125000     24.000000
  0.375000  0.250000  0.125000     48.000000
  0.500000  0.250000  0.125000     24.000000
  0.375000  0.375000  0.125000     24.000000
  0.500000  0.375000  0.125000     24.000000
  0.500000  0.500000  0.125000      6.000000
  0.250000  0.250000  0.250000      8.000000
  0.375000  0.250000  0.250000     24.000000
  0.500000  0.250000  0.250000     12.000000
  0.375000  0.375000  0.250000     24.000000
  0.500000  0.375000  0.250000     24.000000
  0.500000  0.500000  0.250000      6.000000
  0.375000  0.375000  0.375000      8.000000
  0.500000  0.375000  0.375000     12.000000
  0.500000  0.500000  0.375000      6.000000
  0.500000  0.500000  0.500000      1.000000

 Following cartesian coordinates:
            Coordinates               Weight
  0.000000  0.000000  0.000000      1.000000
  0.023648 -0.000000  0.000000      6.000000
  0.047296 -0.000000  0.000000      6.000000
  0.070944 -0.000000  0.000000      6.000000
  0.094591 -0.000000  0.000000      3.000000
  0.023648  0.023648  0.000000     12.000000
  0.047296  0.023648  0.000000     24.000000
  0.070944  0.023648  0.000000     24.000000
  0.094591  0.023648  0.000000     12.000000
  0.047296  0.047296  0.000000     12.000000
  0.070944  0.047296  0.000000     24.000000
  0.094591  0.047296  0.000000     12.000000
  0.070944  0.070944  0.000000     12.000000
  0.094591  0.070944  0.000000     12.000000
  0.094591  0.094591  0.000000      3.000000
  0.023648  0.023648  0.023648      8.000000
  0.047296  0.023648  0.023648     24.000000
  0.070944  0.023648  0.023648     24.000000
  0.094591  0.023648  0.023648     12.000000
  0.047296  0.047296  0.023648     24.000000
  0.070944  0.047296  0.023648     48.000000
  0.094591  0.047296  0.023648     24.000000
  0.070944  0.070944  0.023648     24.000000
  0.094591  0.070944  0.023648     24.000000
  0.094591  0.094591  0.023648      6.000000
  0.047296  0.047296  0.047296      8.000000
  0.070944  0.047296  0.047296     24.000000
  0.094591  0.047296  0.047296     12.000000
  0.070944  0.070944  0.047296     24.000000
  0.094591  0.070944  0.047296     24.000000
  0.094591  0.094591  0.047296      6.000000
  0.070944  0.070944  0.070944      8.000000
  0.094591  0.070944  0.070944     12.000000
  0.094591  0.094591  0.070944      6.000000
  0.094591  0.094591  0.094591      1.000000

 Subroutine IBZKPT_HF returns following result:

 Found    512 k-points in 1st BZ
 the following    512 k-points will be used (e.g. in the exchange kernel)
 Following reciprocal coordinates:   # in IRBZ
  0.000000  0.000000  0.000000    0.00195312   1 t-inv F
  0.125000  0.000000  0.000000    0.00195312   2 t-inv F
  0.250000  0.000000  0.000000    0.00195312   3 t-inv F
  0.375000  0.000000  0.000000    0.00195312   4 t-inv F
  0.500000  0.000000  0.000000    0.00195312   5 t-inv F
  0.125000  0.125000  0.000000    0.00195312   6 t-inv F
  0.250000  0.125000  0.000000    0.00195312   7 t-inv F
  0.375000  0.125000  0.000000    0.00195312   8 t-inv F
  0.500000  0.125000  0.000000    0.00195312   9 t-inv F
  0.250000  0.250000  0.000000    0.00195312  10 t-inv F
  0.375000  0.250000  0.000000    0.00195312  11 t-inv F
  0.500000  0.250000  0.000000    0.00195312  12 t-inv F
  0.375000  0.375000  0.000000    0.00195312  13 t-inv F
  0.500000  0.375000  0.000000    0.00195312  14 t-inv F
  0.500000  0.500000  0.000000    0.00195312  15 t-inv F
  0.125000  0.125000  0.125000    0.00195312  16 t-inv F
  0.250000  0.125000  0.125000    0.00195312  17 t-inv F
  0.375000  0.125000  0.125000    0.00195312  18 t-inv F
  0.500000  0.125000  0.125000    0.00195312  19 t-inv F
  0.250000  0.250000  0.125000    0.00195312  20 t-inv F
  0.375000  0.250000  0.125000    0.00195312  21 t-inv F
  0.500000  0.250000  0.125000    0.00195312  22 t-inv F
  0.375000  0.375000  0.125000    0.00195312  23 t-inv F
  0.500000  0.375000  0.125000    0.00195312  24 t-inv F
  0.500000  0.500000  0.125000    0.00195312  25 t-inv F
  0.250000  0.250000  0.250000    0.00195312  26 t-inv F
  0.375000  0.250000  0.250000    0.00195312  27 t-inv F
  0.500000  0.250000  0.250000    0.00195312  28 t-inv F
  0.375000  0.375000  0.250000    0.00195312  29 t-inv F
  0.500000  0.375000  0.250000    0.00195312  30 t-inv F
  0.500000  0.500000  0.250000    0.00195312  31 t-inv F
  0.375000  0.375000  0.375000    0.00195312  32 t-inv F
  0.500000  0.375000  0.375000    0.00195312  33 t-inv F
  0.500000  0.500000  0.375000    0.00195312  34 t-inv F
  0.500000  0.500000  0.500000    0.00195312  35 t-inv F
 -0.125000 -0.000000  0.000000    0.00195312   2 t-inv F
  0.000000  0.125000  0.000000    0.00195312   2 t-inv F
  0.000000 -0.125000 -0.000000    0.00195312   2 t-inv F
  0.000000  0.000000  0.125000    0.00195312   2 t-inv F
 -0.000000  0.000000 -0.125000    0.00195312   2 t-inv F
 -0.250000 -0.000000  0.000000    0.00195312   3 t-inv F
  0.000000  0.250000  0.000000    0.00195312   3 t-inv F
  0.000000 -0.250000 -0.000000    0.00195312   3 t-inv F
  0.000000  0.000000  0.250000    0.00195312   3 t-inv F
 -0.000000  0.000000 -0.250000    0.00195312   3 t-inv F
[...]
 Gauss-broadening in eV      SIGMA  =   0.05

  energy-cutoff  :      337.04
  volume of cell :      147.69
      direct lattice vectors                 reciprocal lattice vectors
     5.285890000  0.000000000  0.000000000     0.189182900 -0.000000000  0.000000000
     0.000000000  5.285890000  0.000000000     0.000000000  0.189182900  0.000000000
     0.000000000  0.000000000  5.285890000    -0.000000000 -0.000000000  0.189182900

[...]

 old parameters found on file WAVECAR:
  energy-cutoff  :      337.04
  volume of cell :      147.69
      direct lattice vectors                 reciprocal lattice vectors
     5.285890000  0.000000000  0.000000000     0.189182900 -0.000000000  0.000000000
     0.000000000  5.285890000  0.000000000     0.000000000  0.189182900  0.000000000
     0.000000000  0.000000000  5.285890000    -0.000000000 -0.000000000  0.189182900

  length of vectors

 k-points in units of 2pi/SCALE and weight: Automatic kpoint scheme
   0.00000000  0.00000000  0.00000000       0.002
   0.02364786 -0.00000000  0.00000000       0.012
   0.04729573 -0.00000000  0.00000000       0.012
   0.07094359 -0.00000000  0.00000000       0.012
   0.09459145 -0.00000000  0.00000000       0.006
   0.02364786  0.02364786  0.00000000       0.023
   0.04729573  0.02364786  0.00000000       0.047
   0.07094359  0.02364786  0.00000000       0.047
   0.09459145  0.02364786  0.00000000       0.023
   0.04729573  0.04729573  0.00000000       0.023
   0.07094359  0.04729573  0.00000000       0.047
   0.09459145  0.04729573  0.00000000       0.023
   0.07094359  0.07094359  0.00000000       0.023
   0.09459145  0.07094359  0.00000000       0.023
   0.09459145  0.09459145  0.00000000       0.006
   0.02364786  0.02364786  0.02364786       0.016
   0.04729573  0.02364786  0.02364786       0.047
   0.07094359  0.02364786  0.02364786       0.047
   0.09459145  0.02364786  0.02364786       0.023
   0.04729573  0.04729573  0.02364786       0.047
   0.07094359  0.04729573  0.02364786       0.094
   0.09459145  0.04729573  0.02364786       0.047
   0.07094359  0.07094359  0.02364786       0.047
   0.09459145  0.07094359  0.02364786       0.047
   0.09459145  0.09459145  0.02364786       0.012
   0.04729573  0.04729573  0.04729573       0.016
   0.07094359  0.04729573  0.04729573       0.047
   0.09459145  0.04729573  0.04729573       0.023
   0.07094359  0.07094359  0.04729573       0.047
   0.09459145  0.07094359  0.04729573       0.047
   0.09459145  0.09459145  0.04729573       0.012
   0.07094359  0.07094359  0.07094359       0.016
   0.09459145  0.07094359  0.07094359       0.023
   0.09459145  0.09459145  0.07094359       0.012
   0.09459145  0.09459145  0.09459145       0.002

 k-points in reciprocal lattice and weights: Automatic kpoint scheme
   0.00000000  0.00000000  0.00000000       0.002
   0.12500000  0.00000000  0.00000000       0.012
   0.25000000  0.00000000  0.00000000       0.012
   0.37500000  0.00000000  0.00000000       0.012
   0.50000000  0.00000000  0.00000000       0.006
   0.12500000  0.12500000  0.00000000       0.023
   0.25000000  0.12500000  0.00000000       0.047
   0.37500000  0.12500000  0.00000000       0.047
   0.50000000  0.12500000  0.00000000       0.023
   0.25000000  0.25000000  0.00000000       0.023
   0.37500000  0.25000000  0.00000000       0.047
   0.50000000  0.25000000  0.00000000       0.023
   0.37500000  0.37500000  0.00000000       0.023
   0.50000000  0.37500000  0.00000000       0.023
   0.50000000  0.50000000  0.00000000       0.006
   0.12500000  0.12500000  0.12500000       0.016
   0.25000000  0.12500000  0.12500000       0.047
   0.37500000  0.12500000  0.12500000       0.047
   0.50000000  0.12500000  0.12500000       0.023
   0.25000000  0.25000000  0.12500000       0.047
   0.37500000  0.25000000  0.12500000       0.094
   0.50000000  0.25000000  0.12500000       0.047
   0.37500000  0.37500000  0.12500000       0.047
   0.50000000  0.37500000  0.12500000       0.047
   0.50000000  0.50000000  0.12500000       0.012
   0.25000000  0.25000000  0.25000000       0.016
   0.37500000  0.25000000  0.25000000       0.047
   0.50000000  0.25000000  0.25000000       0.023
   0.37500000  0.37500000  0.25000000       0.047
   0.50000000  0.37500000  0.25000000       0.047
   0.50000000  0.50000000  0.25000000       0.012
   0.37500000  0.37500000  0.37500000       0.016
   0.50000000  0.37500000  0.37500000       0.023
   0.50000000  0.50000000  0.37500000       0.012
   0.50000000  0.50000000  0.50000000       0.002

 position of ions in fractional coordinates (direct lattice)
   0.00000000  0.00000000  0.00000000
   0.50000000  0.50000000  0.50000000

 position of ions in cartesian coordinates  (Angst):
   0.00000000  0.00000000  0.00000000
   2.64294500  2.64294500  2.64294500

 k-point     1 :   0.0000 0.0000 0.0000  plane waves:    2103
 k-point     2 :   0.1250 0.0000 0.0000  plane waves:    2072
 k-point     3 :   0.2500 0.0000 0.0000  plane waves:    2076
 k-point     4 :   0.3750 0.0000 0.0000  plane waves:    2060
 k-point     5 :   0.5000 0.0000 0.0000  plane waves:    2088
 k-point     6 :   0.1250 0.1250 0.0000  plane waves:    2057
 k-point     7 :   0.2500 0.1250 0.0000  plane waves:    2068
 k-point     8 :   0.3750 0.1250 0.0000  plane waves:    2062
 k-point     9 :   0.5000 0.1250 0.0000  plane waves:    2076
 k-point    10 :   0.2500 0.2500 0.0000  plane waves:    2063
 k-point    11 :   0.3750 0.2500 0.0000  plane waves:    2070
 k-point    12 :   0.5000 0.2500 0.0000  plane waves:    2078
 k-point    13 :   0.3750 0.3750 0.0000  plane waves:    2089
 k-point    14 :   0.5000 0.3750 0.0000  plane waves:    2080
 k-point    15 :   0.5000 0.5000 0.0000  plane waves:    2096
 k-point    16 :   0.1250 0.1250 0.1250  plane waves:    2073
 k-point    17 :   0.2500 0.1250 0.1250  plane waves:    2075
 k-point    18 :   0.3750 0.1250 0.1250  plane waves:    2070
 k-point    19 :   0.5000 0.1250 0.1250  plane waves:    2076
 k-point    20 :   0.2500 0.2500 0.1250  plane waves:    2069
 k-point    21 :   0.3750 0.2500 0.1250  plane waves:    2068
 k-point    22 :   0.5000 0.2500 0.1250  plane waves:    2086
 k-point    23 :   0.3750 0.3750 0.1250  plane waves:    2081
 k-point    24 :   0.5000 0.3750 0.1250  plane waves:    2072
 k-point    25 :   0.5000 0.5000 0.1250  plane waves:    2072
 k-point    26 :   0.2500 0.2500 0.2500  plane waves:    2070
 k-point    27 :   0.3750 0.2500 0.2500  plane waves:    2086
 k-point    28 :   0.5000 0.2500 0.2500  plane waves:    2084
 k-point    29 :   0.3750 0.3750 0.2500  plane waves:    2086
 k-point    30 :   0.5000 0.3750 0.2500  plane waves:    2082
 k-point    31 :   0.5000 0.5000 0.2500  plane waves:    2092
 k-point    32 :   0.3750 0.3750 0.3750  plane waves:    2082
 k-point    33 :   0.5000 0.3750 0.3750  plane waves:    2086
 k-point    34 :   0.5000 0.5000 0.3750  plane waves:    2072
 k-point    35 :   0.5000 0.5000 0.5000  plane waves:    2008

 maximum and minimum number of plane-waves per node :      2103     2008

 maximum number of plane-waves:      2103
 maximum index in each direction:
   IXMAX=    7   IYMAX=    7   IZMAX=    7
   IXMIN=   -8   IYMIN=   -8   IZMIN=   -8

 serial   3D FFT for wavefunctions
 parallel 3D FFT for charge:
    minimum data exchange during FFTs selected (reduces bandwidth)

 Broyden mixing: mesh for mixing (old mesh)
   NGX = 15   NGY = 15   NGZ = 15
  (NGX  = 48   NGY  = 48   NGZ  = 48)
  gives a total of   3375 points

 charge density for first step will be calculated from the start-wavefunctions

 Maximum index for augmentation-charges          317 (set IRDMAX)

 initial charge from wavefunction
 First call to EWALD:  gamma=   0.335
 Maximum number of real-space cells 3x 3x 3
 Maximum number of reciprocal cells 3x 3x 3

--------------------------------------- Ionic step        1  -------------------------------------------

--------------------------------------- Iteration      1(   1)  ---------------------------------------

 eigenvalue-minimisations  :  2016
 total energy-change (2. order) :-0.2090830E+01  (-0.7270808E-06)
 number of electron      18.0000042 magnetization
 augmentation part        2.8134619 magnetization

 Broyden mixing:
  rms(total) = 0.50690E-03    rms(broyden)= 0.50688E-03
  rms(prec ) = 0.62265E-03
  weight for this iteration     100.00

 Free energy of the ion-electron system (eV)
  alpha Z        PSCENC =        33.60775403
  Ewald energy   TEWEN  =      -803.03206853
  -Hartree energ DENC   =      -542.01791964
  -exchange      EXHF   =         0.00000000
  -V(xc)+E(xc)   XCENC  =        69.81463476
  PAW double counting   =      1189.41151300    -1180.04575773
  entropy T*S    EENTRO =        -0.00242557
  eigenvalues    EBANDS =      -319.82545217
  atomic energy  EATOM  =      1549.99889196
  Solvation  Ediel_sol  =         0.00000000
  free energy    TOTEN  =        -2.09082991 eV

  energy without entropy =       -2.08840434  energy(sigma->0) =       -2.08961713

--------------------------------------- Iteration      1(   2)  ---------------------------------------

 eigenvalue-minimisations  :  1776
 total energy-change (2. order) :-0.1253095E-06  (-0.4179061E-07)
 number of electron      18.0000042 magnetization
 augmentation part        2.8134619 magnetization

 Free energy of the ion-electron system (eV)
  alpha Z        PSCENC =        33.60775403
  Ewald energy   TEWEN  =      -803.03206853
  -Hartree energ DENC   =      -542.02687031
  -exchange      EXHF   =         0.00000000
  -V(xc)+E(xc)   XCENC  =        69.81520441
  PAW double counting   =      1189.43854302    -1180.07251491
  entropy T*S    EENTRO =        -0.00242557
  eigenvalues    EBANDS =      -319.81734412
  atomic energy  EATOM  =      1549.99889196
  Solvation  Ediel_sol  =         0.00000000
  free energy    TOTEN  =        -2.09083004 eV

  energy without entropy =       -2.08840447  energy(sigma->0) =       -2.08961725

 average (electrostatic) potential at core
  the test charge radii are     1.1045
  (the norm of the test charge is              1.0000)
       1 -39.5580       2 -39.5580

 E-fermi :  -0.0688     XC(G=0):  -5.6409     alpha+bet : -3.4049

 val. band max:       -0.0910587149   @ k =   0.3750   0.0000   0.0000
 cond. band min:      -0.0126175197   @ k =   0.5000   0.3750   0.1250
 fundamental gap:      0.0784411952
 Fermi energy:        -0.0687571596

 k-point     1 :       0.0000    0.0000    0.0000
  band No.  band energies     occupation
      1     -32.2642      2.00000
      2     -32.2570      2.00000
      3     -15.7616      2.00000
      4     -15.7616      2.00000
      5     -15.7616      2.00000
      6     -15.7135      2.00000
      7     -15.7135      2.00000
      8     -15.7135      2.00000
      9      -2.2771      2.00000
     10       1.5478      0.00000
     11       1.5478      0.00000
     12       3.3400      0.00000
     13       3.3400      0.00000
     14       3.3400      0.00000
     15       4.1624      0.00000
     16       4.1624      0.00000
     17       4.1624      0.00000
     18       5.0697      0.00000
     19       5.0697      0.00000
     20       5.3647      0.00000
     21       6.2146      0.00000
     22       6.2146      0.00000
     23       6.2146      0.00000
     24       7.8121      0.00000
     25       7.8121      0.00000
     26       7.8121      0.00000
     27       9.7104      0.00000
     28       9.7104      0.00000
     29       9.8749      0.00000
     30       9.8749      0.00000
     31       9.8749      0.00000
     32      11.0747      0.00000
     33      11.0747      0.00000
     34      12.3150      0.00000
     35      13.4637      0.00000
     36      13.7166      0.00000
     37      13.7166      0.00000
     38      13.7166      0.00000
     39      14.4466      0.00000
     40      14.4466      0.00000
     41      14.4466      0.00000
     42      16.5703      0.00000
     43      16.5703      0.00000
     44      16.5703      0.00000
     45      16.5939      0.00000
     46      18.9701      0.00000
     47      18.9701      0.00000
     48      18.9701      0.00000

[...]

 k-point    35 :       0.5000    0.5000    0.5000
  band No.  band energies     occupation
      1     -32.2600      2.00000
      2     -32.2600      2.00000
      3     -15.7455      2.00000
      4     -15.7455      2.00000
      5     -15.7455      2.00000
      6     -15.7455      2.00000
      7     -15.7455      2.00000
      8     -15.7455      2.00000
      9       1.3425      0.00000
     10       1.3425      0.00000
     11       1.3425      0.00000
     12       1.3425      0.00000
     13       1.3425      0.00000
     14       1.3425      0.00000
     15       2.9197      0.00000
     16       2.9197      0.00000
     17       5.6790      0.00000
     18       5.6790      0.00000
     19       5.6790      0.00000
     20       5.6790      0.00000
     21       6.9082      0.00000
     22       6.9082      0.00000
     23       6.9082      0.00000
     24       6.9082      0.00000
     25       6.9082      0.00000
     26       6.9082      0.00000
     27      11.8357      0.00000
     28      11.8357      0.00000
     29      11.8357      0.00000
     30      11.8357      0.00000
     31      11.8357      0.00000
     32      11.8357      0.00000
     33      12.5255      0.00000
     34      12.5255      0.00000
     35      12.5255      0.00000
     36      12.5255      0.00000
     37      12.5255      0.00000
     38      12.5255      0.00000
     39      16.1013      0.00000
     40      16.1013      0.00000
     41      16.1013      0.00000
     42      16.1013      0.00000
     43      16.1013      0.00000
     44      16.1013      0.00000
     45      16.1921      0.00000
     46      16.1921      0.00000
     47      16.6933      0.00000
     48      16.6933      0.00000

 soft charge-density along one line, spin component           1
         0         1         2         3         4         5         6         7         8         9
 total charge-density along one line

------------------------ aborting loop because EDIFF is reached ----------------------------------------

  FORCE on cell =-STRESS in cart. coord.  units (eV):
  Direction    XX          YY          ZZ          XY          YZ          ZX
  Alpha Z    33.60775    33.60775    33.60775
  Ewald    -267.67734  -267.67734  -267.67734     0.00000    -0.00000    -0.00000
  Hartree   180.67961   180.67961   180.67961    -0.00000    -0.00000    -0.00000
  E(xc)     -73.51950   -73.51950   -73.51950     0.00000    -0.00000     0.00000
  Local     -16.44243   -16.44243   -16.44243    -0.00000    -0.00000    -0.00000
  n-local  -113.92648  -114.87342  -115.32917     0.46300     0.18815     0.19757
  augment    16.46413    16.46413    16.46413     0.00000     0.00000     0.00000
  Kinetic   242.20450   241.24009   241.12202     0.44759     0.30147     0.24000
  Fock        0.00000     0.00000     0.00000     0.00000     0.00000     0.00000
  Total      -0.07525    -0.07525    -0.07525    -0.00000    -0.00000     0.00000
  in kB      -0.81635    -0.81635    -0.81635    -0.00000    -0.00000     0.00000

 VOLUME and BASIS-vectors are now :
  energy-cutoff  :      337.04
  volume of cell :      147.69
      direct lattice vectors                 reciprocal lattice vectors
     5.285890000  0.000000000  0.000000000     0.189182900 -0.000000000  0.000000000
     0.000000000  5.285890000  0.000000000     0.000000000  0.189182900  0.000000000
     0.000000000  0.000000000  5.285890000    -0.000000000 -0.000000000  0.189182900

  length of vectors
     5.285890000  5.285890000  5.285890000     0.189182900  0.189182900  0.189182900

 FORCES acting on ions
    electron-ion (+dipol)            ewald-force                    non-local-force                 convergence-correction
   -.164E-14 -.629E-18 0.226E-15   -.374E-14 -.144E-14 -.146E-14   0.501E-25 0.385E-25 0.243E-25   0.587E-15 0.349E-14 0.458E-15
   0.150E-12 0.311E-12 -.125E-11   0.354E-14 0.179E-14 0.101E-14   0.913E-25 0.107E-24 0.129E-25   0.702E-14 0.616E-14 -.371E-15
   0.148E-12 0.311E-12 -.125E-11   -.202E-15 0.355E-15 -.448E-15   0.141E-24 0.146E-24 0.372E-25   0.761E-14 0.965E-14 0.868E-16

 POSITION                                       TOTAL-FORCE (eV/Angst)
      0.00000      0.00000      0.00000        -0.000000     -0.000000     -0.000000
      2.64295      2.64295      2.64295         0.000000      0.000000      0.000000
    total drift:                                0.000000      0.000000     -0.000000

  FREE ENERGIE OF THE ION-ELECTRON SYSTEM (eV)
  free  energy   TOTEN  =        -2.09083004 eV

  energy  without entropy=       -2.08840447  energy(sigma->0) =       -2.08961725

 writing wavefunctions