 vasp.6.4.3 19Mar24 (build Jun 26 2024 13:02:28) complex

 executed on             LinuxIFC date 2025.08.08  19:13:48

 INCAR:
   ENCUT = 298.86740000000003
   IBRION = -1
   ISMEAR = 0
   ISYM = 2
   LCHARG = True
   LWAVE = True
   SIGMA = 0.05
   SYSTEM = Zr

 POTCAR:  PAW_PBE Zr_sv 04Jan2005
|           W    W    AA    RRRRR   N    N  II  N    N   GGGG   !!!           |
|           W    W   A  A   R    R  NN   N  II  NN   N  G    G  !!!           |
|           W    W  A    A  R    R  N N  N  II  N N  N  G       !!!           |
|           W WW W  AAAAAA  RRRRR   N  N N  II  N  N N  G  GGG   !            |
|           WW  WW  A    A  R   R   N   NN  II  N   NN  G    G                |
|           W    W  A    A  R    R  N    N  II  N    N   GGGG   !!!           |
|     For optimal performance we recommend to set                             |
|       NCORE = 2 up to number-of-cores-per-socket                            |
|     This setting can greatly improve the performance of VASP for DFT.       |
|     The default, NCORE=1 might be grossly inefficient on modern             |
|     multi-core architectures or massively parallel machines. Do your        |
|     Unfortunately you need to use the default for GW and RPA                |
|     calculations (for HF NCORE is supported but not extensively tested      |
|     yet).                                                                   |

 POTCAR:  PAW_PBE Zr_sv 04Jan2005
   VRHFIN =Zr: 4s4p5s4d

   TITEL  = PAW_PBE Zr_sv 04Jan2005
   POMASS =   91.224; ZVAL   =   12.000    mass and valenz
   ENMAX  =  229.898; ENMIN  =  172.424 eV

PAW_PBE Zr_sv 04Jan2005                 :

 POSCAR: Zr2
  positions in direct lattice

 exchange-correlation table for PE
   RHO(1)=    0.500       N(1)  =     2000
   RHO(2)=  100.500       N(2)  =     4000

 ion  position               nearest neighbor table
   1  0.000  0.000  0.000-   2 3.20   2 3.20   2 3.20   2 3.20   2 3.20   2 3.20
   2  0.333  0.333  0.500-   1 3.20   1 3.20   1 3.20   1 3.20   1 3.20   1 3.20

  LATTYP: Found a hexagonal cell.
 ALAT       =     3.2360300000
 C/A-ratio  =     1.6036717830

  Lattice vectors:

 A1 = (  -1.6180150000,  -2.8024841874,   0.0000000000)
 A2 = (   3.2360300000,   0.0000000000,   0.0000000000)
 A3 = (   0.0000000000,   0.0000000000,   5.1895300000)

Analysis of symmetry for initial positions (statically):
 Subroutine PRICEL returns:
 Original cell was already a primitive cell.

 Routine SETGRP: Setting up the symmetry group for a
 hexagonal supercell.

 Subroutine GETGRP returns: Found 24 space group operations
 (whereof 12 operations were pure point group operations)
 out of a pool of 24 trial point group operations.

The static configuration has the point symmetry D_3h.
 The point group associated with its full space group is D_6h.

Analysis of symmetry for dynamics (positions and initial velocities):
 Subroutine PRICEL returns:
 Original cell was already a primitive cell.

 Routine SETGRP: Setting up the symmetry group for a
 hexagonal supercell.

 Subroutine GETGRP returns: Found 24 space group operations
 (whereof 12 operations were pure point group operations)
 out of a pool of 24 trial point group operations.

The dynamic configuration has the point symmetry D_3h.
 The point group associated with its full space group is D_6h.

 Subroutine INISYM returns: Found 24 space group operations
 (whereof 12 operations are pure point group operations),
 and found     1 'primitive' translations

                                     Primitive cell

  volume of cell :      47.0634

  direct lattice vectors                    reciprocal lattice vectors
     3.236030000  0.000000000  0.000000000     0.309020621 -0.178413139  0.000000000
     1.618015000  2.802484187  0.000000000     0.000000000  0.356826277  0.000000000
     0.000000000  0.000000000  5.189530000    -0.000000000 -0.000000000  0.192695678

  length of vectors
     3.236030000  3.236030000  5.189530000     0.356826277  0.356826277  0.192695678

  position of ions in fractional coordinates (direct lattice)
     0.000000000  0.000000000  0.000000000
     0.333333333  0.333333333  0.500000000

  ion indices of the primitive-cell ions
   primitive index   ion index
                 1           1
                 2           2

 KPOINTS: Automatic kpoint scheme

Automatic generation of k-mesh.
 Grid dimensions read from file:
 generate k-points for:    8    8    8

 Generating k-lattice:

  Cartesian coordinates                     Fractional coordinates (reciprocal lattice)
     0.038627578 -0.022301642  0.000000000     0.125000000 -0.000000000  0.000000000
     0.000000000  0.044603285  0.000000000     0.000000000  0.125000000  0.000000000
    -0.000000000 -0.000000000  0.024086960     0.000000000  0.000000000  0.125000000

  Length of vectors
     0.044603285  0.044603285  0.024086960

  Shift w.r.t. Gamma in fractional coordinates (k-lattice)
     0.000000000  0.000000000  0.000000000

 Subroutine IBZKPT returns following result:

 Found     50 irreducible k-points:

 Following reciprocal coordinates:
            Coordinates               Weight
  0.000000  0.000000  0.000000      1.000000
  0.125000  0.000000  0.000000      6.000000
  0.250000  0.000000  0.000000      6.000000
  0.375000 -0.000000  0.000000      6.000000
  0.500000  0.000000  0.000000      3.000000
  0.250000  0.125000  0.000000      6.000000
  0.375000  0.125000  0.000000     12.000000
  0.500000  0.125000  0.000000     12.000000
  0.500000  0.250000  0.000000      6.000000
 -0.375000  0.250000  0.000000      6.000000
 -0.000000 -0.000000  0.125000      2.000000
  0.125000  0.000000  0.125000     12.000000
  0.250000  0.000000  0.125000     12.000000
  0.375000  0.000000  0.125000     12.000000
  0.500000  0.000000  0.125000      6.000000
  0.250000  0.125000  0.125000     12.000000
  0.375000  0.125000  0.125000     24.000000
  0.500000  0.125000  0.125000     24.000000
  0.500000  0.250000  0.125000     12.000000
 -0.375000  0.250000  0.125000     12.000000
 -0.000000 -0.000000  0.250000      2.000000
  0.125000  0.000000  0.250000     12.000000
  0.250000  0.000000  0.250000     12.000000
  0.375000  0.000000  0.250000     12.000000
  0.500000  0.000000  0.250000      6.000000
  0.250000  0.125000  0.250000     12.000000
  0.375000  0.125000  0.250000     24.000000
  0.500000  0.125000  0.250000     24.000000
  0.500000  0.250000  0.250000     12.000000
 -0.375000  0.250000  0.250000     12.000000
 -0.000000 -0.000000  0.375000      2.000000
  0.125000 -0.000000  0.375000     12.000000
  0.250000  0.000000  0.375000     12.000000
  0.375000  0.000000  0.375000     12.000000
  0.500000  0.000000  0.375000      6.000000
  0.250000  0.125000  0.375000     12.000000
  0.375000  0.125000  0.375000     24.000000
  0.500000  0.125000  0.375000     24.000000
  0.500000  0.250000  0.375000     12.000000
 -0.375000  0.250000  0.375000     12.000000
 -0.000000 -0.000000  0.500000      1.000000
  0.125000 -0.000000  0.500000      6.000000
  0.250000  0.000000  0.500000      6.000000
  0.375000  0.000000  0.500000      6.000000
  0.500000  0.000000  0.500000      3.000000
  0.250000  0.125000  0.500000      6.000000
  0.375000  0.125000  0.500000     12.000000
  0.500000  0.125000  0.500000     12.000000
  0.500000  0.250000  0.500000      6.000000
 -0.375000  0.250000  0.500000      6.000000

 Following cartesian coordinates:
            Coordinates               Weight
  0.000000  0.000000  0.000000      1.000000
  0.038628 -0.022302  0.000000      6.000000
  0.077255 -0.044603  0.000000      6.000000
  0.115883 -0.066905  0.000000      6.000000
  0.154510 -0.089207  0.000000      3.000000
  0.077255 -0.000000  0.000000      6.000000
  0.115883 -0.022302  0.000000     12.000000
  0.154510 -0.044603  0.000000     12.000000
  0.154510 -0.000000  0.000000      6.000000
 -0.115883  0.156111  0.000000      6.000000
 -0.000000 -0.000000  0.024087      2.000000
  0.038628 -0.022302  0.024087     12.000000
  0.077255 -0.044603  0.024087     12.000000
  0.115883 -0.066905  0.024087     12.000000
  0.154510 -0.089207  0.024087      6.000000
  0.077255 -0.000000  0.024087     12.000000
  0.115883 -0.022302  0.024087     24.000000
  0.154510 -0.044603  0.024087     24.000000
  0.154510 -0.000000  0.024087     12.000000
 -0.115883  0.156111  0.024087     12.000000
 -0.000000 -0.000000  0.048174      2.000000
  0.038628 -0.022302  0.048174     12.000000
  0.077255 -0.044603  0.048174     12.000000
  0.115883 -0.066905  0.048174     12.000000
  0.154510 -0.089207  0.048174      6.000000
  0.077255 -0.000000  0.048174     12.000000
  0.115883 -0.022302  0.048174     24.000000
  0.154510 -0.044603  0.048174     24.000000
  0.154510 -0.000000  0.048174     12.000000
 -0.115883  0.156111  0.048174     12.000000
 -0.000000 -0.000000  0.072261      2.000000
  0.038628 -0.022302  0.072261     12.000000
  0.077255 -0.044603  0.072261     12.000000
  0.115883 -0.066905  0.072261     12.000000
  0.154510 -0.089207  0.072261      6.000000
  0.077255 -0.000000  0.072261     12.000000
  0.115883 -0.022302  0.072261     24.000000
  0.154510 -0.044603  0.072261     24.000000
  0.154510 -0.000000  0.072261     12.000000
 -0.115883  0.156111  0.072261     12.000000
 -0.000000 -0.000000  0.096348      1.000000
  0.038628 -0.022302  0.096348      6.000000
  0.077255 -0.044603  0.096348      6.000000
  0.115883 -0.066905  0.096348      6.000000
  0.154510 -0.089207  0.096348      3.000000
  0.077255 -0.000000  0.096348      6.000000
  0.115883 -0.022302  0.096348     12.000000
  0.154510 -0.044603  0.096348     12.000000
  0.154510 -0.000000  0.096348      6.000000
 -0.115883  0.156111  0.096348      6.000000

 Subroutine IBZKPT_HF returns following result:

 Found    512 k-points in 1st BZ
 the following    512 k-points will be used (e.g. in the exchange kernel)
 Following reciprocal coordinates:   # in IRBZ
  0.000000  0.000000  0.000000    0.00195312   1 t-inv F
  0.125000  0.000000  0.000000    0.00195312   2 t-inv F
  0.250000  0.000000  0.000000    0.00195312   3 t-inv F
  0.375000 -0.000000  0.000000    0.00195312   4 t-inv F
  0.500000  0.000000  0.000000    0.00195312   5 t-inv F
  0.250000  0.125000  0.000000    0.00195312   6 t-inv F
  0.375000  0.125000  0.000000    0.00195312   7 t-inv F
  0.500000  0.125000  0.000000    0.00195312   8 t-inv F
  0.500000  0.250000  0.000000    0.00195312   9 t-inv F
 -0.375000  0.250000  0.000000    0.00195312  10 t-inv F
 -0.000000 -0.000000  0.125000    0.00195312  11 t-inv F
  0.125000  0.000000  0.125000    0.00195312  12 t-inv F
  0.250000  0.000000  0.125000    0.00195312  13 t-inv F
  0.375000  0.000000  0.125000    0.00195312  14 t-inv F
  0.500000  0.000000  0.125000    0.00195312  15 t-inv F
  0.250000  0.125000  0.125000    0.00195312  16 t-inv F
  0.375000  0.125000  0.125000    0.00195312  17 t-inv F
  0.500000  0.125000  0.125000    0.00195312  18 t-inv F
  0.500000  0.250000  0.125000    0.00195312  19 t-inv F
 -0.375000  0.250000  0.125000    0.00195312  20 t-inv F
 -0.000000 -0.000000  0.250000    0.00195312  21 t-inv F
  0.125000  0.000000  0.250000    0.00195312  22 t-inv F
[...]
  -0.11588273  0.15611150  0.04817392       0.023
  -0.00000000 -0.00000000  0.07226088       0.004
   0.03862758 -0.02230164  0.07226088       0.023
   0.07725516 -0.04460328  0.07226088       0.023
   0.11588273 -0.06690493  0.07226088       0.023
   0.15451031 -0.08920657  0.07226088       0.012
   0.07725516 -0.00000000  0.07226088       0.023
   0.11588273 -0.02230164  0.07226088       0.047
   0.15451031 -0.04460328  0.07226088       0.047
   0.15451031 -0.00000000  0.07226088       0.023
  -0.11588273  0.15611150  0.07226088       0.023
  -0.00000000 -0.00000000  0.09634784       0.002
   0.03862758 -0.02230164  0.09634784       0.012
   0.07725516 -0.04460328  0.09634784       0.012
   0.11588273 -0.06690493  0.09634784       0.012
   0.15451031 -0.08920657  0.09634784       0.006
   0.07725516 -0.00000000  0.09634784       0.012
   0.11588273 -0.02230164  0.09634784       0.023
   0.15451031 -0.04460328  0.09634784       0.023
   0.15451031 -0.00000000  0.09634784       0.012
  -0.11588273  0.15611150  0.09634784       0.012

 k-points in reciprocal lattice and weights: Automatic kpoint scheme
   0.00000000  0.00000000  0.00000000       0.002
   0.12500000  0.00000000  0.00000000       0.012
   0.25000000  0.00000000  0.00000000       0.012
   0.37500000 -0.00000000  0.00000000       0.012
   0.50000000  0.00000000  0.00000000       0.006
   0.25000000  0.12500000  0.00000000       0.012
   0.37500000  0.12500000  0.00000000       0.023
   0.50000000  0.12500000  0.00000000       0.023
   0.50000000  0.25000000  0.00000000       0.012
  -0.37500000  0.25000000  0.00000000       0.012
  -0.00000000 -0.00000000  0.12500000       0.004
   0.12500000  0.00000000  0.12500000       0.023
   0.25000000  0.00000000  0.12500000       0.023
   0.37500000  0.00000000  0.12500000       0.023
   0.50000000  0.00000000  0.12500000       0.012
   0.25000000  0.12500000  0.12500000       0.023
   0.37500000  0.12500000  0.12500000       0.047
   0.50000000  0.12500000  0.12500000       0.047
   0.50000000  0.25000000  0.12500000       0.023
  -0.37500000  0.25000000  0.12500000       0.023
  -0.00000000 -0.00000000  0.25000000       0.004
   0.12500000  0.00000000  0.25000000       0.023
   0.25000000  0.00000000  0.25000000       0.023
   0.37500000  0.00000000  0.25000000       0.023
   0.50000000  0.00000000  0.25000000       0.012
   0.25000000  0.12500000  0.25000000       0.023
   0.37500000  0.12500000  0.25000000       0.047
   0.50000000  0.12500000  0.25000000       0.047
   0.50000000  0.25000000  0.25000000       0.023
  -0.37500000  0.25000000  0.25000000       0.023
  -0.00000000 -0.00000000  0.37500000       0.004
   0.12500000 -0.00000000  0.37500000       0.023
   0.25000000  0.00000000  0.37500000       0.023
   0.37500000  0.00000000  0.37500000       0.023
   0.50000000  0.00000000  0.37500000       0.012
   0.25000000  0.12500000  0.37500000       0.023
   0.37500000  0.12500000  0.37500000       0.047
   0.50000000  0.12500000  0.37500000       0.047
   0.50000000  0.25000000  0.37500000       0.023
  -0.37500000  0.25000000  0.37500000       0.023
  -0.00000000 -0.00000000  0.50000000       0.002
   0.12500000 -0.00000000  0.50000000       0.012
   0.25000000  0.00000000  0.50000000       0.012
   0.37500000  0.00000000  0.50000000       0.012
   0.50000000  0.00000000  0.50000000       0.006
   0.25000000  0.12500000  0.50000000       0.012
   0.37500000  0.12500000  0.50000000       0.023
   0.50000000  0.12500000  0.50000000       0.023
   0.50000000  0.25000000  0.50000000       0.012
  -0.37500000  0.25000000  0.50000000       0.012

 position of ions in fractional coordinates (direct lattice)
   0.00000000  0.00000000  0.00000000
   0.33333333  0.33333333  0.50000000

 position of ions in cartesian coordinates  (Angst):
   0.00000000  0.00000000  0.00000000
   1.61801500  0.93416140  2.59476500

 k-point     1 :   0.0000 0.0000 0.0000  plane waves:     549
 k-point     2 :   0.1250 0.0000 0.0000  plane waves:     568
 k-point     3 :   0.2500 0.0000 0.0000  plane waves:     572
 k-point     4 :   0.3750-0.0000 0.0000  plane waves:     550
 k-point     5 :   0.5000 0.0000 0.0000  plane waves:     556
 k-point     6 :   0.2500 0.1250 0.0000  plane waves:     563
 k-point     7 :   0.3750 0.1250 0.0000  plane waves:     549
 k-point     8 :   0.5000 0.1250 0.0000  plane waves:     545
 k-point     9 :   0.5000 0.2500 0.0000  plane waves:     549
 k-point    10 :  -0.3750 0.2500 0.0000  plane waves:     542
 k-point    11 :  -0.0000-0.0000 0.1250  plane waves:     555
 k-point    12 :   0.1250 0.0000 0.1250  plane waves:     560
 k-point    13 :   0.2500 0.0000 0.1250  plane waves:     560
 k-point    14 :   0.3750 0.0000 0.1250  plane waves:     551
 k-point    15 :   0.5000 0.0000 0.1250  plane waves:     552
 k-point    16 :   0.2500 0.1250 0.1250  plane waves:     561
 k-point    17 :   0.3750 0.1250 0.1250  plane waves:     554
 k-point    18 :   0.5000 0.1250 0.1250  plane waves:     548
 k-point    19 :   0.5000 0.2500 0.1250  plane waves:     543
 k-point    20 :  -0.3750 0.2500 0.1250  plane waves:     545
 k-point    21 :  -0.0000-0.0000 0.2500  plane waves:     561
 k-point    22 :   0.1250 0.0000 0.2500  plane waves:     558
 k-point    23 :   0.2500 0.0000 0.2500  plane waves:     558
 k-point    24 :   0.3750 0.0000 0.2500  plane waves:     557
 k-point    25 :   0.5000 0.0000 0.2500  plane waves:     544
 k-point    26 :   0.2500 0.1250 0.2500  plane waves:     555
 k-point    27 :   0.3750 0.1250 0.2500  plane waves:     553
 k-point    28 :   0.5000 0.1250 0.2500  plane waves:     548
 k-point    29 :   0.5000 0.2500 0.2500  plane waves:     552
 k-point    30 :  -0.3750 0.2500 0.2500  plane waves:     546
 k-point    31 :  -0.0000-0.0000 0.3750  plane waves:     554
 k-point    32 :   0.1250-0.0000 0.3750  plane waves:     553
 k-point    33 :   0.2500 0.0000 0.3750  plane waves:     557
 k-point    34 :   0.3750 0.0000 0.3750  plane waves:     551
 k-point    35 :   0.5000 0.0000 0.3750  plane waves:     548
 k-point    36 :   0.2500 0.1250 0.3750  plane waves:     558
 k-point    37 :   0.3750 0.1250 0.3750  plane waves:     551
 k-point    38 :   0.5000 0.1250 0.3750  plane waves:     552
 k-point    39 :   0.5000 0.2500 0.3750  plane waves:     550
 k-point    40 :  -0.3750 0.2500 0.3750  plane waves:     544
 k-point    41 :  -0.0000-0.0000 0.5000  plane waves:     554
 k-point    42 :   0.1250-0.0000 0.5000  plane waves:     554
 k-point    43 :   0.2500 0.0000 0.5000  plane waves:     554
 k-point    44 :   0.3750 0.0000 0.5000  plane waves:     544
 k-point    45 :   0.5000 0.0000 0.5000  plane waves:     544
 k-point    46 :   0.2500 0.1250 0.5000  plane waves:     558
 k-point    47 :   0.3750 0.1250 0.5000  plane waves:     552
 k-point    48 :   0.5000 0.1250 0.5000  plane waves:     552
 k-point    49 :   0.5000 0.2500 0.5000  plane waves:     552
 k-point    50 :  -0.3750 0.2500 0.5000  plane waves:     550

 maximum and minimum number of plane-waves per node :       572      542

 maximum number of plane-waves:       572
 maximum index in each direction:
   IXMAX=    4   IYMAX=    4   IZMAX=    7
   IXMIN=   -5   IYMIN=   -4   IZMIN=   -7

 serial   3D FFT for wavefunctions
 parallel 3D FFT for charge:
    minimum data exchange during FFTs selected (reduces bandwidth)

 Broyden mixing: mesh for mixing (old mesh)
   NGX =  9   NGY =  9   NGZ = 15
  (NGX  = 28   NGY  = 28   NGZ  = 48)
  gives a total of   1215 points

 charge density for first step will be calculated from the start-wavefunctions

 Maximum index for augmentation-charges          285 (set IRDMAX)

 initial charge from wavefunction
 First call to EWALD:  gamma=   0.491
 Maximum number of real-space cells 3x 3x 2
 Maximum number of reciprocal cells 3x 3x 4

--------------------------------------- Ionic step        1  -------------------------------------------

--------------------------------------- Iteration      1(   1)  ---------------------------------------

 eigenvalue-minimisations  :  3936
 total energy-change (2. order) :-0.1702212E+02  (-0.8688652E-05)
 number of electron      23.9999995 magnetization
 augmentation part        0.3108012 magnetization

 Broyden mixing:
  rms(total) = 0.27409E-02    rms(broyden)= 0.27407E-02
  rms(prec ) = 0.31994E-02
  weight for this iteration     100.00

 Free energy of the ion-electron system (eV)
  alpha Z        PSCENC =       112.92539506
  Ewald energy   TEWEN  =     -2089.77682910
  -Hartree energ DENC   =      -430.24702761
  -exchange      EXHF   =         0.00000000
  -V(xc)+E(xc)   XCENC  =        98.12683199
  PAW double counting   =      2789.46935711    -2748.87094957
  entropy T*S    EENTRO =        -0.00308396
  eigenvalues    EBANDS =      -316.99179233
  atomic energy  EATOM  =      2568.34597902
  Solvation  Ediel_sol  =         0.00000000
  free energy    TOTEN  =       -17.02211937 eV

  energy without entropy =      -17.01903541  energy(sigma->0) =      -17.02057739

--------------------------------------- Iteration      1(   2)  ---------------------------------------

 eigenvalue-minimisations  :  2400
 total energy-change (2. order) : 0.1448876E-05  (-0.6566478E-06)
 number of electron      23.9999995 magnetization
 augmentation part        0.3108012 magnetization

 Free energy of the ion-electron system (eV)
  alpha Z        PSCENC =       112.92539506
  Ewald energy   TEWEN  =     -2089.77682910
  -Hartree energ DENC   =      -430.28908166
  -exchange      EXHF   =         0.00000000
  -V(xc)+E(xc)   XCENC  =        98.12908069
  PAW double counting   =      2788.59252281    -2747.98727062
  entropy T*S    EENTRO =        -0.00308370
  eigenvalues    EBANDS =      -316.95883043
  atomic energy  EATOM  =      2568.34597902
  Solvation  Ediel_sol  =         0.00000000
  free energy    TOTEN  =       -17.02211792 eV

  energy without entropy =      -17.01903422  energy(sigma->0) =      -17.02057607

 average (electrostatic) potential at core
  the test charge radii are     1.0638
  (the norm of the test charge is              1.0000)
       1 -74.7569       2 -74.7569

 E-fermi :   8.9497     XC(G=0): -11.0336     alpha+bet :-15.7693

 val. band max:        8.9211730272   @ k =  -0.3750   0.2500   0.2500
 cond. band min:       8.9593604641   @ k =   0.1250  -0.0000   0.3750
 fundamental gap:      0.0381874369
 Fermi energy:         8.9497227558

 k-point     1 :       0.0000    0.0000    0.0000
  band No.  band energies     occupation
      1     -39.9626      2.00000
      2     -39.8183      2.00000
      3     -18.4743      2.00000
      4     -17.6321      2.00000
      5     -17.6320      2.00000
      6     -17.5171      2.00000
      7     -17.4999      2.00000
      8     -17.4999      2.00000
      9       3.2859      2.00000
     10       5.8920      2.00000
     11       9.7534      0.00000
     12       9.7534      0.00000
     13       9.8306      0.00000
     14       9.9614      0.00000
     15      10.4209      0.00000
     16      10.4210      0.00000
     17      11.0435      0.00000
     18      11.0435      0.00000
     19      13.2692      0.00000
     20      13.2692      0.00000
     21      17.9177      0.00000
     22      19.3794      0.00000
     23      20.9658      0.00000
     24      22.1293      0.00000
     25      25.5280      0.00000
     26      25.5280      0.00000
     27      25.6303      0.00000
     28      25.6303      0.00000
     29      26.1474      0.00000
     30      28.6515      0.00000
     31      28.6515      0.00000
     32      30.6260      0.00000
     33      30.6260      0.00000
     34      32.8205      0.00000
     35      33.7025      0.00000
     36      36.9685      0.00000
     37      36.9686      0.00000
     38      37.1262      0.00000
     39      37.1263      0.00000
     40      37.4859      0.00000
     41      39.9066      0.00000
     42      41.4104      0.00000
     43      41.4105      0.00000
     44      41.4634      0.00000
     45      41.8417      0.00000
     46      41.8418      0.00000
     47      44.7007      0.00000
     48      44.9503      0.00000

[...]

 k-point    50 :      -0.3750    0.2500    0.5000
  band No.  band energies     occupation
      1     -39.7992      2.00000
      2     -39.7992      2.00000
      3     -18.2779      2.00000
      4     -18.2779      2.00000
      5     -17.9867      2.00000
      6     -17.9867      2.00000
      7     -17.6707      2.00000
      8     -17.6707      2.00000
      9       7.0232      2.00000
     10       7.0232      2.00000
     11       8.0483      2.00000
     12       8.0484      2.00000
     13       8.8203      1.99975
     14       8.8203      1.99975
     15      10.9451      0.00000
     16      10.9451      0.00000
     17      13.3543      0.00000
     18      13.3543      0.00000
     19      16.2780      0.00000
     20      16.2780      0.00000
     21      18.3539      0.00000
     22      18.3539      0.00000
     23      19.5417      0.00000
     24      19.5417      0.00000
     25      23.1064      0.00000
     26      23.1064      0.00000
     27      25.4667      0.00000
     28      25.4667      0.00000
     29      27.3786      0.00000
     30      27.3786      0.00000
     31      30.5067      0.00000
     32      30.5067      0.00000
     33      32.9277      0.00000
     34      32.9277      0.00000
     35      34.6963      0.00000
     36      34.6963      0.00000
     37      37.2299      0.00000
     38      37.2299      0.00000
     39      38.4307      0.00000
     40      38.4307      0.00000
     41      38.4443      0.00000
     42      38.4443      0.00000
     43      40.1659      0.00000
     44      40.1659      0.00000
     45      42.6805      0.00000
     46      42.6805      0.00000
     47      43.8835      0.00000
     48      43.8835      0.00000

 soft charge-density along one line, spin component           1
         0         1         2         3         4         5         6         7         8         9
 total charge-density along one line

------------------------ aborting loop because EDIFF is reached ----------------------------------------

  FORCE on cell =-STRESS in cart. coord.  units (eV):
  Direction    XX          YY          ZZ          XY          YZ          ZX
  Alpha Z   112.92540   112.92540   112.92540
  Ewald    -702.20970  -702.20970  -685.35888    -0.00000     0.00000     0.00000
  Hartree   141.03778   141.03778   148.26062    -0.00000     0.00000     0.00000
  E(xc)    -101.61303  -101.61303  -101.59163    -0.00000     0.00000     0.00000
  Local     113.51779   113.51793    91.80156    -0.00012     0.00002     0.00004
  n-local   -18.85120   -41.73933   -33.02055   -13.09178     0.59390    -0.42563
  augment     3.94954     3.94953     4.08052     0.00001     0.00000    -0.00000
  Kinetic   449.34742   475.47366   462.62398    14.75172    -0.61270    -0.02870
  Fock        0.00000     0.00000     0.00000     0.00000     0.00000     0.00000
  Total      -0.27688    -0.27688    -0.27899    -0.00000    -0.00000    -0.00000
  in kB      -9.42580    -9.42580    -9.49757    -0.00000    -0.00000    -0.00000

 VOLUME and BASIS-vectors are now :
  energy-cutoff  :      298.87
  volume of cell :       47.06
      direct lattice vectors                 reciprocal lattice vectors
     3.236030000  0.000000000  0.000000000     0.309020621 -0.178413139  0.000000000
     1.618015000  2.802484187  0.000000000     0.000000000  0.356826277  0.000000000
     0.000000000  0.000000000  5.189530000    -0.000000000 -0.000000000  0.192695678

  length of vectors
     3.236030000  3.236030000  5.189530000     0.356826277  0.356826277  0.192695678

 FORCES acting on ions
    electron-ion (+dipol)            ewald-force                    non-local-force                 convergence-correction
   0.124E-06 0.716E-07 0.701E-07   0.119E-11 0.673E-12 -.281E-13   -.565E-16 -.127E-16 -.129E-17   0.941E-07 0.544E-07 -.355E-13
   0.222E-07 0.128E-07 -.111E-06   -.120E-11 -.676E-12 0.282E-13   0.541E-16 0.913E-17 0.671E-18   -.942E-07 -.544E-07 -.255E-13
   0.146E-06 0.845E-07 -.408E-07   -.733E-14 -.263E-14 0.209E-16   -.242E-17 -.354E-17 -.617E-18   -.588E-10 -.339E-10 -.610E-13

 POSITION                                       TOTAL-FORCE (eV/Angst)
      0.00000      0.00000      0.00000        -0.000000     -0.000000      0.000000
      1.61802      0.93416      2.59477         0.000000      0.000000     -0.000000
    total drift:                                0.000000      0.000000     -0.000000

  FREE ENERGIE OF THE ION-ELECTRON SYSTEM (eV)
  free  energy   TOTEN  =       -17.02211792 eV

  energy  without entropy=      -17.01903422  energy(sigma->0) =      -17.02057607

 writing wavefunctions