 vasp.6.4.3 19Mar24 (build Jun 26 2024 13:02:28) complex

 executed on             LinuxIFC date 2025.08.08  18:53:04

 INCAR:
   ENCUT = 286.1456
   IBRION = -1
   ISMEAR = 0
   ISYM = 2
   LCHARG = True
   LWAVE = True
   SIGMA = 0.05
   SYSTEM = Rb

 POTCAR:  PAW_PBE Rb_sv 06Sep2000
|           W    W    AA    RRRRR   N    N  II  N    N   GGGG   !!!           |
|           W    W   A  A   R    R  NN   N  II  NN   N  G    G  !!!           |
|           W    W  A    A  R    R  N N  N  II  N N  N  G       !!!           |
|           W WW W  AAAAAA  RRRRR   N  N N  II  N  N N  G  GGG   !            |
|           WW  WW  A    A  R   R   N   NN  II  N   NN  G    G                |
|           W    W  A    A  R    R  N    N  II  N    N   GGGG   !!!           |
|     For optimal performance we recommend to set                             |
|       NCORE = 2 up to number-of-cores-per-socket                            |
|     This setting can greatly improve the performance of VASP for DFT.       |
|     The default, NCORE=1 might be grossly inefficient on modern             |
|     multi-core architectures or massively parallel machines. Do your        |
|     Unfortunately you need to use the default for GW and RPA                |
|     calculations (for HF NCORE is supported but not extensively tested      |
|     yet).                                                                   |

 POTCAR:  PAW_PBE Rb_sv 06Sep2000
   VRHFIN =Rb: 4s4p5s

   TITEL  = PAW_PBE Rb_sv 06Sep2000
   POMASS =   85.468; ZVAL   =    9.000    mass and valenz
   ENMAX  =  220.112; ENMIN  =  165.084 eV

PAW_PBE Rb_sv 06Sep2000                 :

 POSCAR: Rb2
  positions in direct lattice

 exchange-correlation table for PE
   RHO(1)=    0.500       N(1)  =     2000
   RHO(2)=  100.500       N(2)  =     4000

 ion  position               nearest neighbor table
   1  0.000  0.000  0.000-   2 4.91   2 4.91   2 4.91   2 4.91   2 4.91   2 4.91   2 4.91   2 4.91

   2  0.500  0.500  0.500-   1 4.91   1 4.91   1 4.91   1 4.91   1 4.91   1 4.91   1 4.91   1 4.91

  LATTYP: Found a simple cubic cell.
 ALAT       =     5.6719700000

  Lattice vectors:

 A1 = (   5.6719700000,   0.0000000000,   0.0000000000)
 A2 = (   0.0000000000,   5.6719700000,   0.0000000000)
 A3 = (   0.0000000000,   0.0000000000,   5.6719700000)

Analysis of symmetry for initial positions (statically):
 Subroutine PRICEL returns following result:

  LATTYP: Found a body centered cubic cell.
 ALAT       =     5.6719700000

[...]

   2 primitive cells build up your supercell.

 Routine SETGRP: Setting up the symmetry group for a
 simple cubic supercell.

 Subroutine GETGRP returns: Found 48 space group operations
 (whereof 48 operations were pure point group operations)
 out of a pool of 48 trial point group operations.

The static configuration has the point symmetry O_h .

Analysis of symmetry for dynamics (positions and initial velocities):
 Subroutine PRICEL returns following result:

  LATTYP: Found a body centered cubic cell.
 ALAT       =     5.6719700000

  Lattice vectors:

 A1 = (   2.8359850000,   2.8359850000,  -2.8359850000)
 A2 = (  -2.8359850000,   2.8359850000,   2.8359850000)
 A3 = (   2.8359850000,  -2.8359850000,   2.8359850000)

   2 primitive cells build up your supercell.

 Routine SETGRP: Setting up the symmetry group for a
 simple cubic supercell.

 Subroutine GETGRP returns: Found 48 space group operations
 (whereof 48 operations were pure point group operations)
 out of a pool of 48 trial point group operations.

The dynamic configuration has the point symmetry O_h .

 Subroutine INISYM returns: Found 48 space group operations
 (whereof 48 operations are pure point group operations),
 and found     2 'primitive' translations

                                     Primitive cell

  volume of cell :      91.2372

  direct lattice vectors                    reciprocal lattice vectors
     2.835985000  2.835985000 -2.835985000     0.176305587  0.176305587 -0.000000000
    -2.835985000  2.835985000  2.835985000    -0.000000000  0.176305587  0.176305587
     2.835985000 -2.835985000  2.835985000     0.176305587 -0.000000000  0.176305587

  length of vectors
     4.912070110  4.912070110  4.912070110     0.249333752  0.249333752  0.249333752

  position of ions in fractional coordinates (direct lattice)
     0.000000000  0.000000000  0.000000000

  ion indices of the primitive-cell ions
   primitive index   ion index
                 1           1

 KPOINTS: Automatic kpoint scheme

Automatic generation of k-mesh.
 Grid dimensions read from file:
 generate k-points for:    8    8    8

 Generating k-lattice:

  Cartesian coordinates                     Fractional coordinates (reciprocal lattice)
     0.022038198 -0.000000000  0.000000000     0.125000000  0.000000000  0.000000000
     0.000000000  0.022038198  0.000000000     0.000000000  0.125000000  0.000000000
    -0.000000000 -0.000000000  0.022038198    -0.000000000  0.000000000  0.125000000

  Length of vectors
     0.022038198  0.022038198  0.022038198

  Shift w.r.t. Gamma in fractional coordinates (k-lattice)
     0.000000000  0.000000000  0.000000000

 Subroutine IBZKPT returns following result:

 Found     35 irreducible k-points:

 Following reciprocal coordinates:
            Coordinates               Weight
  0.000000  0.000000  0.000000      1.000000
  0.125000  0.000000  0.000000      6.000000
  0.250000  0.000000  0.000000      6.000000
  0.375000 -0.000000  0.000000      6.000000
  0.500000  0.000000  0.000000      3.000000
  0.125000  0.125000  0.000000     12.000000
  0.250000  0.125000  0.000000     24.000000
  0.375000  0.125000  0.000000     24.000000
  0.500000  0.125000  0.000000     12.000000
  0.250000  0.250000  0.000000     12.000000
  0.375000  0.250000  0.000000     24.000000
  0.500000  0.250000  0.000000     12.000000
  0.375000  0.375000  0.000000     12.000000
  0.500000  0.375000  0.000000     12.000000
  0.500000  0.500000  0.000000      3.000000
  0.125000  0.125000  0.125000      8.000000
  0.250000  0.125000  0.125000     24.000000
  0.375000  0.125000  0.125000     24.000000
  0.500000  0.125000  0.125000     12.000000
  0.250000  0.250000  0.125000     24.000000
  0.375000  0.250000  0.125000     48.000000
  0.500000  0.250000  0.125000     24.000000
  0.375000  0.375000  0.125000     24.000000
  0.500000  0.375000  0.125000     24.000000
  0.500000  0.500000  0.125000      6.000000
  0.250000  0.250000  0.250000      8.000000
  0.375000  0.250000  0.250000     24.000000
  0.500000  0.250000  0.250000     12.000000
  0.375000  0.375000  0.250000     24.000000
  0.500000  0.375000  0.250000     24.000000
  0.500000  0.500000  0.250000      6.000000
  0.375000  0.375000  0.375000      8.000000
  0.500000  0.375000  0.375000     12.000000
  0.500000  0.500000  0.375000      6.000000
  0.500000  0.500000  0.500000      1.000000

 Following cartesian coordinates:
            Coordinates               Weight
  0.000000  0.000000  0.000000      1.000000
  0.022038 -0.000000  0.000000      6.000000
  0.044076 -0.000000  0.000000      6.000000
  0.066115 -0.000000  0.000000      6.000000
  0.088153 -0.000000  0.000000      3.000000
  0.022038  0.022038  0.000000     12.000000
  0.044076  0.022038  0.000000     24.000000
  0.066115  0.022038  0.000000     24.000000
  0.088153  0.022038  0.000000     12.000000
  0.044076  0.044076  0.000000     12.000000
  0.066115  0.044076  0.000000     24.000000
  0.088153  0.044076  0.000000     12.000000
  0.066115  0.066115  0.000000     12.000000
  0.088153  0.066115  0.000000     12.000000
  0.088153  0.088153  0.000000      3.000000
  0.022038  0.022038  0.022038      8.000000
  0.044076  0.022038  0.022038     24.000000
  0.066115  0.022038  0.022038     24.000000
  0.088153  0.022038  0.022038     12.000000
  0.044076  0.044076  0.022038     24.000000
  0.066115  0.044076  0.022038     48.000000
  0.088153  0.044076  0.022038     24.000000
  0.066115  0.066115  0.022038     24.000000
  0.088153  0.066115  0.022038     24.000000
  0.088153  0.088153  0.022038      6.000000
  0.044076  0.044076  0.044076      8.000000
  0.066115  0.044076  0.044076     24.000000
  0.088153  0.044076  0.044076     12.000000
  0.066115  0.066115  0.044076     24.000000
  0.088153  0.066115  0.044076     24.000000
  0.088153  0.088153  0.044076      6.000000
  0.066115  0.066115  0.066115      8.000000
  0.088153  0.066115  0.066115     12.000000
  0.088153  0.088153  0.066115      6.000000
  0.088153  0.088153  0.088153      1.000000

 Subroutine IBZKPT_HF returns following result:

 Found    512 k-points in 1st BZ
 the following    512 k-points will be used (e.g. in the exchange kernel)
 Following reciprocal coordinates:   # in IRBZ
  0.000000  0.000000  0.000000    0.00195312   1 t-inv F
  0.125000  0.000000  0.000000    0.00195312   2 t-inv F
  0.250000  0.000000  0.000000    0.00195312   3 t-inv F
  0.375000 -0.000000  0.000000    0.00195312   4 t-inv F
  0.500000  0.000000  0.000000    0.00195312   5 t-inv F
  0.125000  0.125000  0.000000    0.00195312   6 t-inv F
  0.250000  0.125000  0.000000    0.00195312   7 t-inv F
  0.375000  0.125000  0.000000    0.00195312   8 t-inv F
  0.500000  0.125000  0.000000    0.00195312   9 t-inv F
  0.250000  0.250000  0.000000    0.00195312  10 t-inv F
  0.375000  0.250000  0.000000    0.00195312  11 t-inv F
  0.500000  0.250000  0.000000    0.00195312  12 t-inv F
  0.375000  0.375000  0.000000    0.00195312  13 t-inv F
  0.500000  0.375000  0.000000    0.00195312  14 t-inv F
  0.500000  0.500000  0.000000    0.00195312  15 t-inv F
  0.125000  0.125000  0.125000    0.00195312  16 t-inv F
  0.250000  0.125000  0.125000    0.00195312  17 t-inv F
  0.375000  0.125000  0.125000    0.00195312  18 t-inv F
  0.500000  0.125000  0.125000    0.00195312  19 t-inv F
  0.250000  0.250000  0.125000    0.00195312  20 t-inv F
  0.375000  0.250000  0.125000    0.00195312  21 t-inv F
  0.500000  0.250000  0.125000    0.00195312  22 t-inv F
  0.375000  0.375000  0.125000    0.00195312  23 t-inv F
  0.500000  0.375000  0.125000    0.00195312  24 t-inv F
  0.500000  0.500000  0.125000    0.00195312  25 t-inv F
  0.250000  0.250000  0.250000    0.00195312  26 t-inv F
  0.375000  0.250000  0.250000    0.00195312  27 t-inv F
  0.500000  0.250000  0.250000    0.00195312  28 t-inv F
  0.375000  0.375000  0.250000    0.00195312  29 t-inv F
  0.500000  0.375000  0.250000    0.00195312  30 t-inv F
  0.500000  0.500000  0.250000    0.00195312  31 t-inv F
  0.375000  0.375000  0.375000    0.00195312  32 t-inv F
  0.500000  0.375000  0.375000    0.00195312  33 t-inv F
  0.500000  0.500000  0.375000    0.00195312  34 t-inv F
  0.500000  0.500000  0.500000    0.00195312  35 t-inv F
 -0.125000 -0.000000  0.000000    0.00195312   2 t-inv F
  0.000000  0.125000  0.000000    0.00195312   2 t-inv F
  0.000000 -0.125000 -0.000000    0.00195312   2 t-inv F
  0.000000  0.000000  0.125000    0.00195312   2 t-inv F
 -0.000000  0.000000 -0.125000    0.00195312   2 t-inv F
 -0.250000 -0.000000  0.000000    0.00195312   3 t-inv F
  0.000000  0.250000  0.000000    0.00195312   3 t-inv F
[...]
 Gauss-broadening in eV      SIGMA  =   0.05

  energy-cutoff  :      286.15
  volume of cell :      182.47
      direct lattice vectors                 reciprocal lattice vectors
     5.671970000  0.000000000  0.000000000     0.176305587 -0.000000000  0.000000000
     0.000000000  5.671970000  0.000000000     0.000000000  0.176305587  0.000000000
     0.000000000  0.000000000  5.671970000    -0.000000000 -0.000000000  0.176305587

[...]

 old parameters found on file WAVECAR:
  energy-cutoff  :      286.15
  volume of cell :      182.47
      direct lattice vectors                 reciprocal lattice vectors
     5.671970000  0.000000000  0.000000000     0.176305587 -0.000000000  0.000000000
     0.000000000  5.671970000  0.000000000     0.000000000  0.176305587  0.000000000
     0.000000000  0.000000000  5.671970000    -0.000000000 -0.000000000  0.176305587

  length of vectors

 k-points in units of 2pi/SCALE and weight: Automatic kpoint scheme
   0.00000000  0.00000000  0.00000000       0.002
   0.02203820 -0.00000000  0.00000000       0.012
   0.04407640 -0.00000000  0.00000000       0.012
   0.06611460 -0.00000000  0.00000000       0.012
   0.08815279 -0.00000000  0.00000000       0.006
   0.02203820  0.02203820  0.00000000       0.023
   0.04407640  0.02203820  0.00000000       0.047
   0.06611460  0.02203820  0.00000000       0.047
   0.08815279  0.02203820  0.00000000       0.023
   0.04407640  0.04407640  0.00000000       0.023
   0.06611460  0.04407640  0.00000000       0.047
   0.08815279  0.04407640  0.00000000       0.023
   0.06611460  0.06611460  0.00000000       0.023
   0.08815279  0.06611460  0.00000000       0.023
   0.08815279  0.08815279  0.00000000       0.006
   0.02203820  0.02203820  0.02203820       0.016
   0.04407640  0.02203820  0.02203820       0.047
   0.06611460  0.02203820  0.02203820       0.047
   0.08815279  0.02203820  0.02203820       0.023
   0.04407640  0.04407640  0.02203820       0.047
   0.06611460  0.04407640  0.02203820       0.094
   0.08815279  0.04407640  0.02203820       0.047
   0.06611460  0.06611460  0.02203820       0.047
   0.08815279  0.06611460  0.02203820       0.047
   0.08815279  0.08815279  0.02203820       0.012
   0.04407640  0.04407640  0.04407640       0.016
   0.06611460  0.04407640  0.04407640       0.047
   0.08815279  0.04407640  0.04407640       0.023
   0.06611460  0.06611460  0.04407640       0.047
   0.08815279  0.06611460  0.04407640       0.047
   0.08815279  0.08815279  0.04407640       0.012
   0.06611460  0.06611460  0.06611460       0.016
   0.08815279  0.06611460  0.06611460       0.023
   0.08815279  0.08815279  0.06611460       0.012
   0.08815279  0.08815279  0.08815279       0.002

 k-points in reciprocal lattice and weights: Automatic kpoint scheme
   0.00000000  0.00000000  0.00000000       0.002
   0.12500000  0.00000000  0.00000000       0.012
   0.25000000  0.00000000  0.00000000       0.012
   0.37500000 -0.00000000  0.00000000       0.012
   0.50000000  0.00000000  0.00000000       0.006
   0.12500000  0.12500000  0.00000000       0.023
   0.25000000  0.12500000  0.00000000       0.047
   0.37500000  0.12500000  0.00000000       0.047
   0.50000000  0.12500000  0.00000000       0.023
   0.25000000  0.25000000  0.00000000       0.023
   0.37500000  0.25000000  0.00000000       0.047
   0.50000000  0.25000000  0.00000000       0.023
   0.37500000  0.37500000  0.00000000       0.023
   0.50000000  0.37500000  0.00000000       0.023
   0.50000000  0.50000000  0.00000000       0.006
   0.12500000  0.12500000  0.12500000       0.016
   0.25000000  0.12500000  0.12500000       0.047
   0.37500000  0.12500000  0.12500000       0.047
   0.50000000  0.12500000  0.12500000       0.023
   0.25000000  0.25000000  0.12500000       0.047
   0.37500000  0.25000000  0.12500000       0.094
   0.50000000  0.25000000  0.12500000       0.047
   0.37500000  0.37500000  0.12500000       0.047
   0.50000000  0.37500000  0.12500000       0.047
   0.50000000  0.50000000  0.12500000       0.012
   0.25000000  0.25000000  0.25000000       0.016
   0.37500000  0.25000000  0.25000000       0.047
   0.50000000  0.25000000  0.25000000       0.023
   0.37500000  0.37500000  0.25000000       0.047
   0.50000000  0.37500000  0.25000000       0.047
   0.50000000  0.50000000  0.25000000       0.012
   0.37500000  0.37500000  0.37500000       0.016
   0.50000000  0.37500000  0.37500000       0.023
   0.50000000  0.50000000  0.37500000       0.012
   0.50000000  0.50000000  0.50000000       0.002

 position of ions in fractional coordinates (direct lattice)
   0.00000000  0.00000000  0.00000000
   0.50000000  0.50000000  0.50000000

 position of ions in cartesian coordinates  (Angst):
   0.00000000  0.00000000  0.00000000
   2.83598500  2.83598500  2.83598500

 k-point     1 :   0.0000 0.0000 0.0000  plane waves:    2007
 k-point     2 :   0.1250 0.0000 0.0000  plane waves:    1999
 k-point     3 :   0.2500 0.0000 0.0000  plane waves:    2000
 k-point     4 :   0.3750-0.0000 0.0000  plane waves:    2008
 k-point     5 :   0.5000 0.0000 0.0000  plane waves:    1984
 k-point     6 :   0.1250 0.1250 0.0000  plane waves:    2005
 k-point     7 :   0.2500 0.1250 0.0000  plane waves:    2000
 k-point     8 :   0.3750 0.1250 0.0000  plane waves:    2004
 k-point     9 :   0.5000 0.1250 0.0000  plane waves:    2010
 k-point    10 :   0.2500 0.2500 0.0000  plane waves:    2003
 k-point    11 :   0.3750 0.2500 0.0000  plane waves:    2001
 k-point    12 :   0.5000 0.2500 0.0000  plane waves:    1998
 k-point    13 :   0.3750 0.3750 0.0000  plane waves:    2021
 k-point    14 :   0.5000 0.3750 0.0000  plane waves:    2010
 k-point    15 :   0.5000 0.5000 0.0000  plane waves:    2000
 k-point    16 :   0.1250 0.1250 0.1250  plane waves:    1986
 k-point    17 :   0.2500 0.1250 0.1250  plane waves:    1989
 k-point    18 :   0.3750 0.1250 0.1250  plane waves:    2010
 k-point    19 :   0.5000 0.1250 0.1250  plane waves:    2010
 k-point    20 :   0.2500 0.2500 0.1250  plane waves:    1999
 k-point    21 :   0.3750 0.2500 0.1250  plane waves:    2003
 k-point    22 :   0.5000 0.2500 0.1250  plane waves:    2012
 k-point    23 :   0.3750 0.3750 0.1250  plane waves:    2010
 k-point    24 :   0.5000 0.3750 0.1250  plane waves:    2020
 k-point    25 :   0.5000 0.5000 0.1250  plane waves:    2016
 k-point    26 :   0.2500 0.2500 0.2500  plane waves:    2022
 k-point    27 :   0.3750 0.2500 0.2500  plane waves:    2005
 k-point    28 :   0.5000 0.2500 0.2500  plane waves:    2012
 k-point    29 :   0.3750 0.3750 0.2500  plane waves:    2007
 k-point    30 :   0.5000 0.3750 0.2500  plane waves:    2006
 k-point    31 :   0.5000 0.5000 0.2500  plane waves:    2016
 k-point    32 :   0.3750 0.3750 0.3750  plane waves:    2010
 k-point    33 :   0.5000 0.3750 0.3750  plane waves:    2004
 k-point    34 :   0.5000 0.5000 0.3750  plane waves:    1984
 k-point    35 :   0.5000 0.5000 0.5000  plane waves:    2008

 maximum and minimum number of plane-waves per node :      2022     1984

 maximum number of plane-waves:      2022
 maximum index in each direction:
   IXMAX=    7   IYMAX=    7   IZMAX=    7
   IXMIN=   -8   IYMIN=   -8   IZMIN=   -8

 serial   3D FFT for wavefunctions
 parallel 3D FFT for charge:
    minimum data exchange during FFTs selected (reduces bandwidth)

 Broyden mixing: mesh for mixing (old mesh)
   NGX = 15   NGY = 15   NGZ = 15
  (NGX  = 48   NGY  = 48   NGZ  = 48)
  gives a total of   3375 points

 charge density for first step will be calculated from the start-wavefunctions

 Maximum index for augmentation-charges          277 (set IRDMAX)

 initial charge from wavefunction
 First call to EWALD:  gamma=   0.312
 Maximum number of real-space cells 3x 3x 3
 Maximum number of reciprocal cells 3x 3x 3

--------------------------------------- Ionic step        1  -------------------------------------------

--------------------------------------- Iteration      1(   1)  ---------------------------------------

 eigenvalue-minimisations  :  2016
 total energy-change (2. order) :-0.1870836E+01  (-0.7180618E-06)
 number of electron      17.9999986 magnetization
 augmentation part       -0.4225866 magnetization

 Broyden mixing:
  rms(total) = 0.25185E-03    rms(broyden)= 0.25184E-03
  rms(prec ) = 0.43952E-03
  weight for this iteration     100.00

 Free energy of the ion-electron system (eV)
  alpha Z        PSCENC =        34.25823695
  Ewald energy   TEWEN  =      -748.37123270
  -Hartree energ DENC   =      -405.44341906
  -exchange      EXHF   =         0.00000000
  -V(xc)+E(xc)   XCENC  =        56.80424769
  PAW double counting   =      1012.54368828    -1003.84485181
  entropy T*S    EENTRO =        -0.00275536
  eigenvalues    EBANDS =      -272.80803348
  atomic energy  EATOM  =      1324.99328387
  Solvation  Ediel_sol  =         0.00000000
  free energy    TOTEN  =        -1.87083562 eV

  energy without entropy =       -1.86808026  energy(sigma->0) =       -1.86945794

--------------------------------------- Iteration      1(   2)  ---------------------------------------

 eigenvalue-minimisations  :  1968
 total energy-change (2. order) :-0.7605854E-07  (-0.4541034E-07)
 number of electron      17.9999986 magnetization
 augmentation part       -0.4225866 magnetization

 Free energy of the ion-electron system (eV)
  alpha Z        PSCENC =        34.25823695
  Ewald energy   TEWEN  =      -748.37123270
  -Hartree energ DENC   =      -405.45118773
  -exchange      EXHF   =         0.00000000
  -V(xc)+E(xc)   XCENC  =        56.80472817
  PAW double counting   =      1012.57721342    -1003.87781747
  entropy T*S    EENTRO =        -0.00275535
  eigenvalues    EBANDS =      -272.80130484
  atomic energy  EATOM  =      1324.99328387
  Solvation  Ediel_sol  =         0.00000000
  free energy    TOTEN  =        -1.87083569 eV

  energy without entropy =       -1.86808034  energy(sigma->0) =       -1.86945801

 average (electrostatic) potential at core
  the test charge radii are     1.1097
  (the norm of the test charge is              1.0000)
       1 -41.2354       2 -41.2354

 E-fermi :   0.0439     XC(G=0):  -5.4585     alpha+bet : -3.2658

 val. band max:        0.0046473574   @ k =   0.5000   0.3750   0.0000
 cond. band min:       0.0537687739   @ k =   0.3750  -0.0000   0.0000
 fundamental gap:      0.0491214165
 Fermi energy:         0.0439116023

 k-point     1 :       0.0000    0.0000    0.0000
  band No.  band energies     occupation
      1     -28.8985      2.00000
      2     -28.8911      2.00000
      3     -13.0100      2.00000
      4     -13.0100      2.00000
      5     -13.0100      2.00000
      6     -12.9417      2.00000
      7     -12.9417      2.00000
      8     -12.9417      2.00000
      9      -1.9587      2.00000
     10       1.2681      0.00000
     11       1.2681      0.00000
     12       3.2527      0.00000
     13       3.2527      0.00000
     14       3.2527      0.00000
     15       3.6836      0.00000
     16       3.6836      0.00000
     17       3.6836      0.00000
     18       4.6152      0.00000
     19       4.6152      0.00000
     20       4.7885      0.00000
     21       5.9747      0.00000
     22       5.9747      0.00000
     23       5.9747      0.00000
     24       6.7038      0.00000
     25       6.7038      0.00000
     26       6.7038      0.00000
     27       9.3015      0.00000
     28       9.3015      0.00000
     29       9.3015      0.00000
     30      10.0207      0.00000
     31      10.0207      0.00000
     32      10.4270      0.00000
     33      10.5165      0.00000
     34      10.5165      0.00000
     35      11.9383      0.00000
     36      12.8167      0.00000
     37      12.8167      0.00000
     38      12.8167      0.00000
     39      13.9631      0.00000
     40      13.9631      0.00000
     41      13.9631      0.00000
     42      14.5649      0.00000
     43      15.3121      0.00000
     44      15.3121      0.00000
     45      15.3121      0.00000
     46      16.4886      0.00000
     47      16.4886      0.00000
     48      16.4886      0.00000

[...]

 k-point    35 :       0.5000    0.5000    0.5000
  band No.  band energies     occupation
      1     -28.8942      2.00000
      2     -28.8942      2.00000
      3     -12.9881      2.00000
      4     -12.9881      2.00000
      5     -12.9881      2.00000
      6     -12.9881      2.00000
      7     -12.9881      2.00000
      8     -12.9881      2.00000
      9       1.3045      0.00000
     10       1.3045      0.00000
     11       1.3045      0.00000
     12       1.3045      0.00000
     13       1.3045      0.00000
     14       1.3045      0.00000
     15       2.5908      0.00000
     16       2.5908      0.00000
     17       5.3399      0.00000
     18       5.3399      0.00000
     19       5.3399      0.00000
     20       5.3399      0.00000
     21       6.6964      0.00000
     22       6.6964      0.00000
     23       6.6964      0.00000
     24       6.6964      0.00000
     25       6.6964      0.00000
     26       6.6964      0.00000
     27      10.1891      0.00000
     28      10.1891      0.00000
     29      10.1891      0.00000
     30      10.1891      0.00000
     31      10.1891      0.00000
     32      10.1891      0.00000
     33      11.1092      0.00000
     34      11.1092      0.00000
     35      11.1092      0.00000
     36      11.1092      0.00000
     37      11.1092      0.00000
     38      11.1092      0.00000
     39      14.0212      0.00000
     40      14.0212      0.00000
     41      15.2947      0.00000
     42      15.2947      0.00000
     43      15.2947      0.00000
     44      15.2947      0.00000
     45      15.2947      0.00000
     46      15.2947      0.00000
     47      15.9521      0.00000
     48      15.9521      0.00000

 soft charge-density along one line, spin component           1
         0         1         2         3         4         5         6         7         8         9
 total charge-density along one line

------------------------ aborting loop because EDIFF is reached ----------------------------------------

  FORCE on cell =-STRESS in cart. coord.  units (eV):
  Direction    XX          YY          ZZ          XY          YZ          ZX
  Alpha Z    34.25824    34.25824    34.25824
  Ewald    -249.45706  -249.45706  -249.45706    -0.00000    -0.00000    -0.00000
  Hartree   135.15459   135.15459   135.15459    -0.00000    -0.00000    -0.00000
  E(xc)     -63.48809   -63.48809   -63.48809     0.00000    -0.00000    -0.00000
  Local     -13.91792   -13.91792   -13.91792    -0.00000    -0.00000    -0.00000
  n-local   -87.71945   -88.39745   -88.81885     0.37083     0.12011     0.14565
  augment    -2.18822    -2.18822    -2.18822     0.00000     0.00000     0.00000
  Kinetic   248.43138   247.56761   247.64776     0.37399     0.31562     0.22601
  Fock        0.00000     0.00000     0.00000     0.00000     0.00000     0.00000
  Total      -0.06814    -0.06814    -0.06814     0.00000     0.00000    -0.00000
  in kB      -0.59828    -0.59828    -0.59828     0.00000     0.00000    -0.00000

 VOLUME and BASIS-vectors are now :
  energy-cutoff  :      286.15
  volume of cell :      182.47
      direct lattice vectors                 reciprocal lattice vectors
     5.671970000  0.000000000  0.000000000     0.176305587 -0.000000000  0.000000000
     0.000000000  5.671970000  0.000000000     0.000000000  0.176305587  0.000000000
     0.000000000  0.000000000  5.671970000    -0.000000000 -0.000000000  0.176305587

  length of vectors
     5.671970000  5.671970000  5.671970000     0.176305587  0.176305587  0.176305587

 FORCES acting on ions
    electron-ion (+dipol)            ewald-force                    non-local-force                 convergence-correction
   0.434E-15 -.121E-15 0.156E-14   -.105E-14 -.305E-15 -.204E-15   0.806E-27 0.317E-25 0.100E-24   -.175E-14 -.152E-14 0.152E-14
   0.683E-13 0.195E-12 -.987E-12   0.884E-15 0.545E-15 0.528E-15   0.277E-25 0.308E-25 0.147E-26   -.861E-14 -.119E-14 0.170E-14
   0.687E-13 0.195E-12 -.986E-12   -.166E-15 0.240E-15 0.324E-15   0.285E-25 0.625E-25 0.102E-24   -.104E-13 -.271E-14 0.322E-14

 POSITION                                       TOTAL-FORCE (eV/Angst)
      0.00000      0.00000      0.00000        -0.000000     -0.000000      0.000000
      2.83599      2.83598      2.83599         0.000000      0.000000     -0.000000
    total drift:                                0.000000      0.000000     -0.000000

  FREE ENERGIE OF THE ION-ELECTRON SYSTEM (eV)
  free  energy   TOTEN  =        -1.87083569 eV

  energy  without entropy=       -1.86808034  energy(sigma->0) =       -1.86945801

 writing wavefunctions