 vasp.6.4.3 19Mar24 (build Jun 26 2024 13:02:28) complex

 executed on             LinuxIFC date 2025.08.08  19:02:58

 INCAR:
   ENCUT = 318.9485
   IBRION = -1
   ISMEAR = 0
   ISYM = 2
   LCHARG = True
   LWAVE = True
   SIGMA = 0.05
   SYSTEM = Si

 POTCAR:  PAW_PBE Si 05Jan2001
|           W    W    AA    RRRRR   N    N  II  N    N   GGGG   !!!           |
|           W    W   A  A   R    R  NN   N  II  NN   N  G    G  !!!           |
|           W    W  A    A  R    R  N N  N  II  N N  N  G       !!!           |
|           W WW W  AAAAAA  RRRRR   N  N N  II  N  N N  G  GGG   !            |
|           WW  WW  A    A  R   R   N   NN  II  N   NN  G    G                |
|           W    W  A    A  R    R  N    N  II  N    N   GGGG   !!!           |
|     For optimal performance we recommend to set                             |
|       NCORE = 2 up to number-of-cores-per-socket                            |
|     This setting can greatly improve the performance of VASP for DFT.       |
|     The default, NCORE=1 might be grossly inefficient on modern             |
|     multi-core architectures or massively parallel machines. Do your        |
|     Unfortunately you need to use the default for GW and RPA                |
|     calculations (for HF NCORE is supported but not extensively tested      |
|     yet).                                                                   |

 POTCAR:  PAW_PBE Si 05Jan2001
   VRHFIN =Si: s2p2

   TITEL  = PAW_PBE Si 05Jan2001
   POMASS =   28.085; ZVAL   =    4.000    mass and valenz
   ENMAX  =  245.345; ENMIN  =  184.009 eV

PAW_PBE Si 05Jan2001                    :

 POSCAR: Si2
  positions in direct lattice

 exchange-correlation table for PE
   RHO(1)=    0.500       N(1)  =     2000
   RHO(2)=  100.500       N(2)  =     4000

 ion  position               nearest neighbor table
   1  0.000  0.000  0.000-   2 2.37   2 2.37   2 2.37   2 2.37
   2  0.250  0.250  0.250-   1 2.37   1 2.37   1 2.37   1 2.37

  LATTYP: Found a face centered cubic cell.
 ALAT       =     5.4688911249

  Lattice vectors:

 A1 = (   3.3489981787,   0.0000000000,   1.9335450000)
 A2 = (   1.1163327262,   3.1574657631,   1.9335450000)
 A3 = (   0.0000000000,   0.0000000000,   3.8670900000)

Analysis of symmetry for initial positions (statically):
 Subroutine PRICEL returns:
 Original cell was already a primitive cell.

 Routine SETGRP: Setting up the symmetry group for a
 face centered cubic supercell.

 Subroutine GETGRP returns: Found 48 space group operations
 (whereof 24 operations were pure point group operations)
 out of a pool of 48 trial point group operations.

The static configuration has the point symmetry T_d .
 The point group associated with its full space group is O_h .

Analysis of symmetry for dynamics (positions and initial velocities):
 Subroutine PRICEL returns:
 Original cell was already a primitive cell.

 Routine SETGRP: Setting up the symmetry group for a
 face centered cubic supercell.

 Subroutine GETGRP returns: Found 48 space group operations
 (whereof 24 operations were pure point group operations)
 out of a pool of 48 trial point group operations.

The dynamic configuration has the point symmetry T_d .
 The point group associated with its full space group is O_h .

 Subroutine INISYM returns: Found 48 space group operations
 (whereof 24 operations are pure point group operations),
 and found     1 'primitive' translations

                                     Primitive cell

  volume of cell :      40.8920

  direct lattice vectors                    reciprocal lattice vectors
     3.348998179  0.000000000  1.933545000     0.298596758 -0.105569896  0.000000000
     1.116332726  3.157465763  1.933545000     0.000000000  0.316709689  0.000000000
     0.000000000  0.000000000  3.867090000    -0.149298379 -0.105569896  0.258592378

  length of vectors
     3.867090000  3.867090000  3.867090000     0.316709689  0.316709689  0.316709689

  position of ions in fractional coordinates (direct lattice)
     0.000000000  0.000000000  0.000000000
     0.250000000  0.250000000  0.250000000

  ion indices of the primitive-cell ions
   primitive index   ion index
                 1           1
                 2           2

 KPOINTS: Automatic kpoint scheme

Automatic generation of k-mesh.
 Grid dimensions read from file:
 generate k-points for:   12   12   12

 Generating k-lattice:

  Cartesian coordinates                     Fractional coordinates (reciprocal lattice)
     0.024883063 -0.008797491  0.000000000     0.083333333 -0.000000000  0.000000000
     0.000000000  0.026392474  0.000000000     0.000000000  0.083333333  0.000000000
    -0.012441532 -0.008797491  0.021549365    -0.000000000  0.000000000  0.083333333

  Length of vectors
     0.026392474  0.026392474  0.026392474

  Shift w.r.t. Gamma in fractional coordinates (k-lattice)
     0.000000000  0.000000000  0.000000000

 Subroutine IBZKPT returns following result:

 Found     72 irreducible k-points:

 Following reciprocal coordinates:
            Coordinates               Weight
  0.000000  0.000000  0.000000      1.000000
  0.083333 -0.000000  0.000000      8.000000
  0.166667 -0.000000  0.000000      8.000000
  0.250000  0.000000  0.000000      8.000000
  0.333333 -0.000000  0.000000      8.000000
  0.416667 -0.000000  0.000000      8.000000
  0.500000  0.000000  0.000000      4.000000
  0.083333  0.083333  0.000000      6.000000
  0.166667  0.083333  0.000000     24.000000
  0.250000  0.083333  0.000000     24.000000
  0.333333  0.083333  0.000000     24.000000
  0.416667  0.083333  0.000000     24.000000
  0.500000  0.083333  0.000000     24.000000
 -0.416667  0.083333  0.000000     24.000000
 -0.333333  0.083333  0.000000     24.000000
 -0.250000  0.083333  0.000000     24.000000
 -0.166667  0.083333  0.000000     24.000000
 -0.083333  0.083333  0.000000     12.000000
  0.166667  0.166667  0.000000      6.000000
  0.250000  0.166667  0.000000     24.000000
  0.333333  0.166667  0.000000     24.000000
  0.416667  0.166667  0.000000     24.000000
  0.500000  0.166667  0.000000     24.000000
 -0.416667  0.166667  0.000000     24.000000
 -0.333333  0.166667  0.000000     24.000000
 -0.250000  0.166667  0.000000     24.000000
 -0.166667  0.166667  0.000000     12.000000
  0.250000  0.250000  0.000000      6.000000
  0.333333  0.250000  0.000000     24.000000
  0.416667  0.250000  0.000000     24.000000
  0.500000  0.250000  0.000000     24.000000
 -0.416667  0.250000  0.000000     24.000000
 -0.333333  0.250000  0.000000     24.000000
 -0.250000  0.250000  0.000000     12.000000
  0.333333  0.333333  0.000000      6.000000
  0.416667  0.333333  0.000000     24.000000
  0.500000  0.333333  0.000000     24.000000
 -0.416667  0.333333  0.000000     24.000000
 -0.333333  0.333333  0.000000     12.000000
  0.416667  0.416667  0.000000      6.000000
  0.500000  0.416667  0.000000     24.000000
 -0.416667  0.416667  0.000000     12.000000
  0.500000  0.500000  0.000000      3.000000
  0.250000  0.166667  0.083333     24.000000
  0.333333  0.166667  0.083333     48.000000
  0.416667  0.166667  0.083333     48.000000
  0.500000  0.166667  0.083333     48.000000
 -0.416667  0.166667  0.083333     24.000000
  0.333333  0.250000  0.083333     24.000000
  0.416667  0.250000  0.083333     48.000000
  0.500000  0.250000  0.083333     48.000000
 -0.416667  0.250000  0.083333     48.000000
 -0.333333  0.250000  0.083333     48.000000
 -0.250000  0.250000  0.083333     48.000000
 -0.166667  0.250000  0.083333     24.000000
  0.416667  0.333333  0.083333     24.000000
  0.500000  0.333333  0.083333     48.000000
 -0.416667  0.333333  0.083333     48.000000
 -0.333333  0.333333  0.083333     48.000000
 -0.250000  0.333333  0.083333     24.000000
  0.500000  0.416667  0.083333     24.000000
 -0.416667  0.416667  0.083333     48.000000
 -0.333333  0.416667  0.083333     24.000000
 -0.416667  0.500000  0.083333     12.000000
  0.500000  0.333333  0.166667     24.000000
 -0.416667  0.333333  0.166667     48.000000
 -0.333333  0.333333  0.166667     24.000000
 -0.416667  0.416667  0.166667     24.000000
 -0.333333  0.416667  0.166667     48.000000
 -0.250000  0.416667  0.166667     24.000000
 -0.333333  0.500000  0.166667     12.000000
 -0.250000  0.500000  0.250000      6.000000

 Following cartesian coordinates:
            Coordinates               Weight
  0.000000  0.000000  0.000000      1.000000
  0.024883 -0.008797  0.000000      8.000000
  0.049766 -0.017595  0.000000      8.000000
  0.074649 -0.026392  0.000000      8.000000
  0.099532 -0.035190  0.000000      8.000000
  0.124415 -0.043987  0.000000      8.000000
  0.149298 -0.052785  0.000000      4.000000
  0.024883  0.017595  0.000000      6.000000
  0.049766  0.008797  0.000000     24.000000
  0.074649  0.000000  0.000000     24.000000
  0.099532 -0.008797  0.000000     24.000000
  0.124415 -0.017595  0.000000     24.000000
  0.149298 -0.026392  0.000000     24.000000
 -0.124415  0.070380  0.000000     24.000000
 -0.099532  0.061582  0.000000     24.000000
 -0.074649  0.052785  0.000000     24.000000
 -0.049766  0.043987  0.000000     24.000000
 -0.024883  0.035190  0.000000     12.000000
  0.049766  0.035190  0.000000      6.000000
  0.074649  0.026392  0.000000     24.000000
  0.099532  0.017595  0.000000     24.000000
  0.124415  0.008797  0.000000     24.000000
  0.149298 -0.000000  0.000000     24.000000
 -0.124415  0.096772  0.000000     24.000000
 -0.099532  0.087975  0.000000     24.000000
 -0.074649  0.079177  0.000000     24.000000
 -0.049766  0.070380  0.000000     12.000000
  0.074649  0.052785  0.000000      6.000000
  0.099532  0.043987  0.000000     24.000000
  0.124415  0.035190  0.000000     24.000000
  0.149298  0.026392  0.000000     24.000000
 -0.124415  0.123165  0.000000     24.000000
 -0.099532  0.114367  0.000000     24.000000
 -0.074649  0.105570  0.000000     12.000000
  0.099532  0.070380  0.000000      6.000000
  0.124415  0.061582  0.000000     24.000000
  0.149298  0.052785  0.000000     24.000000
 -0.124415  0.149557  0.000000     24.000000
 -0.099532  0.140760  0.000000     12.000000
  0.124415  0.087975  0.000000      6.000000
  0.149298  0.079177  0.000000     24.000000
 -0.124415  0.175950  0.000000     12.000000
  0.149298  0.105570  0.000000      3.000000
  0.062208  0.017595  0.021549     24.000000
  0.087091  0.008797  0.021549     48.000000
  0.111974 -0.000000  0.021549     48.000000
  0.136857 -0.008797  0.021549     48.000000
 -0.136857  0.087975  0.021549     24.000000
  0.087091  0.035190  0.021549     24.000000
  0.111974  0.026392  0.021549     48.000000
  0.136857  0.017595  0.021549     48.000000
 -0.136857  0.114367  0.021549     48.000000
 -0.111974  0.105570  0.021549     48.000000
 -0.087091  0.096772  0.021549     48.000000
 -0.062208  0.087975  0.021549     24.000000
  0.111974  0.052785  0.021549     24.000000
  0.136857  0.043987  0.021549     48.000000
 -0.136857  0.140760  0.021549     48.000000
 -0.111974  0.131962  0.021549     48.000000
 -0.087091  0.123165  0.021549     24.000000
  0.136857  0.070380  0.021549     24.000000
 -0.136857  0.167152  0.021549     48.000000
[...]
   0.25000000  0.25000000  0.00000000       0.003
   0.33333333  0.25000000  0.00000000       0.014
   0.41666667  0.25000000  0.00000000       0.014
   0.50000000  0.25000000  0.00000000       0.014
  -0.41666667  0.25000000  0.00000000       0.014
  -0.33333333  0.25000000  0.00000000       0.014
  -0.25000000  0.25000000  0.00000000       0.007
   0.33333333  0.33333333  0.00000000       0.003
   0.41666667  0.33333333  0.00000000       0.014
   0.50000000  0.33333333  0.00000000       0.014
  -0.41666667  0.33333333  0.00000000       0.014
  -0.33333333  0.33333333  0.00000000       0.007
   0.41666667  0.41666667  0.00000000       0.003
   0.50000000  0.41666667  0.00000000       0.014
  -0.41666667  0.41666667  0.00000000       0.007
   0.50000000  0.50000000  0.00000000       0.002
   0.25000000  0.16666667  0.08333333       0.014
   0.33333333  0.16666667  0.08333333       0.028
   0.41666667  0.16666667  0.08333333       0.028
   0.50000000  0.16666667  0.08333333       0.028
  -0.41666667  0.16666667  0.08333333       0.014
   0.33333333  0.25000000  0.08333333       0.014
   0.41666667  0.25000000  0.08333333       0.028
   0.50000000  0.25000000  0.08333333       0.028
  -0.41666667  0.25000000  0.08333333       0.028
  -0.33333333  0.25000000  0.08333333       0.028
  -0.25000000  0.25000000  0.08333333       0.028
  -0.16666667  0.25000000  0.08333333       0.014
   0.41666667  0.33333333  0.08333333       0.014
   0.50000000  0.33333333  0.08333333       0.028
  -0.41666667  0.33333333  0.08333333       0.028
  -0.33333333  0.33333333  0.08333333       0.028
  -0.25000000  0.33333333  0.08333333       0.014
   0.50000000  0.41666667  0.08333333       0.014
  -0.41666667  0.41666667  0.08333333       0.028
  -0.33333333  0.41666667  0.08333333       0.014
  -0.41666667  0.50000000  0.08333333       0.007
   0.50000000  0.33333333  0.16666667       0.014
  -0.41666667  0.33333333  0.16666667       0.028
  -0.33333333  0.33333333  0.16666667       0.014
  -0.41666667  0.41666667  0.16666667       0.014
  -0.33333333  0.41666667  0.16666667       0.028
  -0.25000000  0.41666667  0.16666667       0.014
  -0.33333333  0.50000000  0.16666667       0.007
  -0.25000000  0.50000000  0.25000000       0.003

 position of ions in fractional coordinates (direct lattice)
   0.00000000  0.00000000  0.00000000
   0.25000000  0.25000000  0.25000000

 position of ions in cartesian coordinates  (Angst):
   0.00000000  0.00000000  0.00000000
   1.11633273  0.78936644  1.93354500

 k-point     1 :   0.0000 0.0000 0.0000  plane waves:     531
 k-point     2 :   0.0833-0.0000 0.0000  plane waves:     534
 k-point     3 :   0.1667-0.0000 0.0000  plane waves:     540
 k-point     4 :   0.2500 0.0000 0.0000  plane waves:     531
 k-point     5 :   0.3333-0.0000 0.0000  plane waves:     528
 k-point     6 :   0.4167-0.0000 0.0000  plane waves:     529
 k-point     7 :   0.5000 0.0000 0.0000  plane waves:     544
 k-point     8 :   0.0833 0.0833 0.0000  plane waves:     532
 k-point     9 :   0.1667 0.0833 0.0000  plane waves:     535
 k-point    10 :   0.2500 0.0833 0.0000  plane waves:     535
 k-point    11 :   0.3333 0.0833 0.0000  plane waves:     531
 k-point    12 :   0.4167 0.0833 0.0000  plane waves:     530
 k-point    13 :   0.5000 0.0833 0.0000  plane waves:     537
 k-point    14 :  -0.4167 0.0833 0.0000  plane waves:     534
 k-point    15 :  -0.3333 0.0833 0.0000  plane waves:     529
 k-point    16 :  -0.2500 0.0833 0.0000  plane waves:     530
 k-point    17 :  -0.1667 0.0833 0.0000  plane waves:     534
 k-point    18 :  -0.0833 0.0833 0.0000  plane waves:     533
 k-point    19 :   0.1667 0.1667 0.0000  plane waves:     532
 k-point    20 :   0.2500 0.1667 0.0000  plane waves:     537
 k-point    21 :   0.3333 0.1667 0.0000  plane waves:     529
 k-point    22 :   0.4167 0.1667 0.0000  plane waves:     531
 k-point    23 :   0.5000 0.1667 0.0000  plane waves:     532
 k-point    24 :  -0.4167 0.1667 0.0000  plane waves:     529
 k-point    25 :  -0.3333 0.1667 0.0000  plane waves:     530
 k-point    26 :  -0.2500 0.1667 0.0000  plane waves:     528
 k-point    27 :  -0.1667 0.1667 0.0000  plane waves:     537
 k-point    28 :   0.2500 0.2500 0.0000  plane waves:     528
 k-point    29 :   0.3333 0.2500 0.0000  plane waves:     532
 k-point    30 :   0.4167 0.2500 0.0000  plane waves:     529
 k-point    31 :   0.5000 0.2500 0.0000  plane waves:     529
 k-point    32 :  -0.4167 0.2500 0.0000  plane waves:     526
 k-point    33 :  -0.3333 0.2500 0.0000  plane waves:     531
 k-point    34 :  -0.2500 0.2500 0.0000  plane waves:     524
 k-point    35 :   0.3333 0.3333 0.0000  plane waves:     520
 k-point    36 :   0.4167 0.3333 0.0000  plane waves:     529
 k-point    37 :   0.5000 0.3333 0.0000  plane waves:     528
 k-point    38 :  -0.4167 0.3333 0.0000  plane waves:     524
 k-point    39 :  -0.3333 0.3333 0.0000  plane waves:     528
 k-point    40 :   0.4167 0.4167 0.0000  plane waves:     532
 k-point    41 :   0.5000 0.4167 0.0000  plane waves:     522
 k-point    42 :  -0.4167 0.4167 0.0000  plane waves:     526
 k-point    43 :   0.5000 0.5000 0.0000  plane waves:     524
 k-point    44 :   0.2500 0.1667 0.0833  plane waves:     530
 k-point    45 :   0.3333 0.1667 0.0833  plane waves:     535
 k-point    46 :   0.4167 0.1667 0.0833  plane waves:     524
 k-point    47 :   0.5000 0.1667 0.0833  plane waves:     532
 k-point    48 :  -0.4167 0.1667 0.0833  plane waves:     530
 k-point    49 :   0.3333 0.2500 0.0833  plane waves:     533
 k-point    50 :   0.4167 0.2500 0.0833  plane waves:     529
 k-point    51 :   0.5000 0.2500 0.0833  plane waves:     529
 k-point    52 :  -0.4167 0.2500 0.0833  plane waves:     531
 k-point    53 :  -0.3333 0.2500 0.0833  plane waves:     533
 k-point    54 :  -0.2500 0.2500 0.0833  plane waves:     530
 k-point    55 :  -0.1667 0.2500 0.0833  plane waves:     533
 k-point    56 :   0.4167 0.3333 0.0833  plane waves:     529
 k-point    57 :   0.5000 0.3333 0.0833  plane waves:     526
 k-point    58 :  -0.4167 0.3333 0.0833  plane waves:     527
 k-point    59 :  -0.3333 0.3333 0.0833  plane waves:     526
 k-point    60 :  -0.2500 0.3333 0.0833  plane waves:     530
 k-point    61 :   0.5000 0.4167 0.0833  plane waves:     524
 k-point    62 :  -0.4167 0.4167 0.0833  plane waves:     523
 k-point    63 :  -0.3333 0.4167 0.0833  plane waves:     525
 k-point    64 :  -0.4167 0.5000 0.0833  plane waves:     522
 k-point    65 :   0.5000 0.3333 0.1667  plane waves:     535
 k-point    66 :  -0.4167 0.3333 0.1667  plane waves:     530
 k-point    67 :  -0.3333 0.3333 0.1667  plane waves:     524
 k-point    68 :  -0.4167 0.4167 0.1667  plane waves:     519
 k-point    69 :  -0.3333 0.4167 0.1667  plane waves:     523
 k-point    70 :  -0.2500 0.4167 0.1667  plane waves:     527
 k-point    71 :  -0.3333 0.5000 0.1667  plane waves:     518
 k-point    72 :  -0.2500 0.5000 0.2500  plane waves:     524

 maximum and minimum number of plane-waves per node :       544      518

 maximum number of plane-waves:       544
 maximum index in each direction:
   IXMAX=    6   IYMAX=    5   IZMAX=    5
   IXMIN=   -6   IYMIN=   -6   IZMIN=   -5

 serial   3D FFT for wavefunctions
 parallel 3D FFT for charge:
    minimum data exchange during FFTs selected (reduces bandwidth)

 Broyden mixing: mesh for mixing (old mesh)
   NGX = 11   NGY = 11   NGZ = 11
  (NGX  = 36   NGY  = 36   NGZ  = 36)
  gives a total of   1331 points

 charge density for first step will be calculated from the start-wavefunctions

 Maximum index for augmentation-charges          313 (set IRDMAX)

 initial charge from wavefunction
 First call to EWALD:  gamma=   0.514
 Maximum number of real-space cells 3x 3x 3
 Maximum number of reciprocal cells 3x 3x 3

--------------------------------------- Ionic step        1  -------------------------------------------

--------------------------------------- Iteration      1(   1)  ---------------------------------------

 eigenvalue-minimisations  :  4176
 total energy-change (2. order) :-0.1084573E+02  (-0.9886693E-07)
 number of electron       7.9999992 magnetization
 augmentation part       -0.4582206 magnetization

 Broyden mixing:
  rms(total) = 0.74156E-04    rms(broyden)= 0.74156E-04
  rms(prec ) = 0.94718E-04
  weight for this iteration     100.00

 Free energy of the ion-electron system (eV)
  alpha Z        PSCENC =         3.29288569
  Ewald energy   TEWEN  =      -226.93813280
  -Hartree energ DENC   =       -15.17080111
  -exchange      EXHF   =         0.00000000
  -V(xc)+E(xc)   XCENC  =       -18.05847423
  PAW double counting   =       854.07413741     -819.09447221
  entropy T*S    EENTRO =        -0.00000000
  eigenvalues    EBANDS =         4.91850039
  atomic energy  EATOM  =       206.13062786
  Solvation  Ediel_sol  =         0.00000000
  free energy    TOTEN  =       -10.84572899 eV

  energy without entropy =      -10.84572899  energy(sigma->0) =      -10.84572899

--------------------------------------- Iteration      1(   2)  ---------------------------------------

 eigenvalue-minimisations  :  3552
 total energy-change (2. order) : 0.6002949E-09  (-0.5881267E-09)
 number of electron       7.9999992 magnetization
 augmentation part       -0.4582206 magnetization

 Free energy of the ion-electron system (eV)
  alpha Z        PSCENC =         3.29288569
  Ewald energy   TEWEN  =      -226.93813280
  -Hartree energ DENC   =       -15.17080103
  -exchange      EXHF   =         0.00000000
  -V(xc)+E(xc)   XCENC  =       -18.05846604
  PAW double counting   =       854.12950214     -819.14982916
  entropy T*S    EENTRO =        -0.00000000
  eigenvalues    EBANDS =         4.91848435
  atomic energy  EATOM  =       206.13062786
  Solvation  Ediel_sol  =         0.00000000
  free energy    TOTEN  =       -10.84572899 eV

  energy without entropy =      -10.84572899  energy(sigma->0) =      -10.84572899

 average (electrostatic) potential at core
  the test charge radii are     0.9892
  (the norm of the test charge is              1.0000)
       1 -83.4838       2 -83.4838

 E-fermi :   5.9534     XC(G=0):  -9.3273     alpha+bet :-11.7307

 val. band max:        5.6163085261   @ k =   0.0000   0.0000   0.0000
 cond. band min:       6.2284320626   @ k =   0.4167   0.4167   0.0000
 fundamental gap:      0.6121235366
 Fermi energy:         5.9534082636

 k-point     1 :       0.0000    0.0000    0.0000
  band No.  band energies     occupation
      1      -6.1991      2.00000
      2       5.6163      2.00000
      3       5.6163      2.00000
      4       5.6163      2.00000
      5       8.1751      0.00000
      6       8.1751      0.00000
      7       8.1751      0.00000
      8       8.7477      0.00000
      9      13.3415      0.00000
     10      13.3415      0.00000
     11      13.4927      0.00000
     12      16.8020      0.00000
     13      16.8020      0.00000
     14      16.8020      0.00000
     15      20.8892      0.00000
     16      28.5065      0.00000
     17      28.5065      0.00000
     18      28.5065      0.00000
     19      29.6153      0.00000
     20      29.6153      0.00000
     21      31.0202      0.00000
     22      31.0202      0.00000
     23      31.0202      0.00000
     24      34.5374      0.00000
     25      34.5374      0.00000
     26      34.5374      0.00000
     27      40.2213      0.00000
     28      40.2214      0.00000
     29      40.2214      0.00000
     30      43.4184      0.00000
     31      43.9894      0.00000
     32      43.9894      0.00000
     33      45.8307      0.00000
     34      45.8307      0.00000
     35      47.2874      0.00000
     36      47.2874      0.00000
     37      47.2874      0.00000
     38      49.0437      0.00000
     39      49.0437      0.00000
     40      49.0437      0.00000
     41      49.5381      0.00000
     42      50.1072      0.00000
     43      50.1072      0.00000
     44      50.1072      0.00000
     45      50.1109      0.00000
     46      50.1109      0.00000
     47      50.1109      0.00000
     48      51.5183      0.00000

[...]

 k-point    72 :      -0.2500    0.5000    0.2500
  band No.  band energies     occupation
      1      -1.9761      2.00000
      2      -1.9761      2.00000
      3       1.8549      2.00000
      4       1.8549      2.00000
      5       9.8910      0.00000
      6       9.8910      0.00000
      7      10.5510      0.00000
      8      10.5510      0.00000
      9      16.0790      0.00000
     10      16.0790      0.00000
     11      18.4986      0.00000
     12      18.4986      0.00000
     13      21.9323      0.00000
     14      21.9323      0.00000
     15      24.0243      0.00000
     16      24.0243      0.00000
     17      24.3022      0.00000
     18      24.3022      0.00000
     19      25.2312      0.00000
     20      25.2312      0.00000
     21      29.0590      0.00000
     22      29.0590      0.00000
     23      32.8435      0.00000
     24      32.8435      0.00000
     25      32.9813      0.00000
     26      32.9813      0.00000
     27      34.7008      0.00000
     28      34.7008      0.00000
     29      38.0469      0.00000
     30      38.0470      0.00000
     31      42.0026      0.00000
     32      42.0026      0.00000
     33      43.2186      0.00000
     34      43.2186      0.00000
     35      45.4075      0.00000
     36      45.4076      0.00000
     37      48.3886      0.00000
     38      48.3886      0.00000
     39      49.5660      0.00000
     40      49.5660      0.00000
     41      52.3943      0.00000
     42      52.3943      0.00000
     43      53.6122      0.00000
     44      53.6122      0.00000
     45      53.8085      0.00000
     46      53.8085      0.00000
     47      56.6341      0.00000
     48      56.6341      0.00000

 soft charge-density along one line, spin component           1
         0         1         2         3         4         5         6         7         8         9
 total charge-density along one line

------------------------ aborting loop because EDIFF is reached ----------------------------------------

  FORCE on cell =-STRESS in cart. coord.  units (eV):
  Direction    XX          YY          ZZ          XY          YZ          ZX
  Alpha Z     3.29289     3.29289     3.29289
  Ewald     -75.64608   -75.64608   -75.64608    -0.00000    -0.00000    -0.00000
  Hartree     5.05695     5.05695     5.05695     0.00000     0.00000     0.00000
  E(xc)     -25.25062   -25.25062   -25.25062    -0.00000    -0.00000    -0.00000
  Local     -29.54834   -29.54835   -29.54829     0.00002     0.00003     0.00004
  n-local    73.87424    77.23182    81.34802    -0.90933    -0.89719    -0.02361
  augment   -11.64472   -11.64471   -11.64476    -0.00001    -0.00002    -0.00003
  Kinetic    53.02420    54.99031    60.67752     0.85841     1.22501    -0.54920
  Fock        0.00000     0.00000     0.00000     0.00000     0.00000     0.00000
  Total      -0.02454    -0.02454    -0.02454     0.00000    -0.00000     0.00000
  in kB      -0.96161    -0.96161    -0.96161     0.00000    -0.00000     0.00000

 VOLUME and BASIS-vectors are now :
  energy-cutoff  :      318.95
  volume of cell :       40.89
      direct lattice vectors                 reciprocal lattice vectors
     3.348998179  0.000000000  1.933545000     0.298596758 -0.105569896  0.000000000
     1.116332726  3.157465763  1.933545000     0.000000000  0.316709689  0.000000000
     0.000000000  0.000000000  3.867090000    -0.149298379 -0.105569896  0.258592378

  length of vectors
     3.867090000  3.867090000  3.867090000     0.316709689  0.316709689  0.316709689

 FORCES acting on ions
    electron-ion (+dipol)            ewald-force                    non-local-force                 convergence-correction
   0.143E-05 0.101E-05 0.249E-05   0.864E-14 0.560E-14 0.114E-13   0.854E-16 0.659E-16 0.154E-15   0.251E-09 0.178E-09 0.435E-09
   -.143E-05 -.101E-05 -.249E-05   -.912E-14 -.558E-14 -.115E-13   -.830E-16 -.774E-16 -.152E-15   -.251E-09 -.178E-09 -.435E-09
   -.195E-13 -.160E-13 -.471E-13   -.483E-15 0.184E-16 -.128E-15   0.239E-17 -.115E-16 0.202E-17   -.933E-15 0.382E-15 -.220E-14

 POSITION                                       TOTAL-FORCE (eV/Angst)
      0.00000      0.00000      0.00000        -0.000000     -0.000000     -0.000000
      1.11633      0.78937      1.93355         0.000000      0.000000      0.000000
    total drift:                               -0.000000     -0.000000     -0.000000

  FREE ENERGIE OF THE ION-ELECTRON SYSTEM (eV)
  free  energy   TOTEN  =       -10.84572899 eV

  energy  without entropy=      -10.84572899  energy(sigma->0) =      -10.84572899

 writing wavefunctions