 vasp.6.4.3 19Mar24 (build Jun 26 2024 13:02:28) complex

 executed on             LinuxIFC date 2025.08.08  18:54:45

 INCAR:
   ENCUT = 520.0
   IBRION = -1
   ISMEAR = 0
   ISYM = 2
   LCHARG = True
   LWAVE = True
   SIGMA = 0.05
   SYSTEM = C

 POTCAR:  PAW_PBE C 08Apr2002
|           W    W    AA    RRRRR   N    N  II  N    N   GGGG   !!!           |
|           W    W   A  A   R    R  NN   N  II  NN   N  G    G  !!!           |
|           W    W  A    A  R    R  N N  N  II  N N  N  G       !!!           |
|           W WW W  AAAAAA  RRRRR   N  N N  II  N  N N  G  GGG   !            |
|           WW  WW  A    A  R   R   N   NN  II  N   NN  G    G                |
|           W    W  A    A  R    R  N    N  II  N    N   GGGG   !!!           |
|     For optimal performance we recommend to set                             |
|       NCORE = 2 up to number-of-cores-per-socket                            |
|     This setting can greatly improve the performance of VASP for DFT.       |
|     The default, NCORE=1 might be grossly inefficient on modern             |
|     multi-core architectures or massively parallel machines. Do your        |
|     Unfortunately you need to use the default for GW and RPA                |
|     calculations (for HF NCORE is supported but not extensively tested      |
|     yet).                                                                   |

 POTCAR:  PAW_PBE C 08Apr2002
   VRHFIN =C: s2p2

   TITEL  = PAW_PBE C 08Apr2002
   POMASS =   12.011; ZVAL   =    4.000    mass and valenz
   ENMAX  =  400.000; ENMIN  =  300.000 eV

PAW_PBE C 08Apr2002                     :

 POSCAR: C4
  positions in direct lattice

 exchange-correlation table for PE
   RHO(1)=    0.500       N(1)  =     2000
   RHO(2)=  100.500       N(2)  =     4000

 ion  position               nearest neighbor table
   1  0.000  0.000  0.250-   3 1.43   3 1.43   3 1.43
   2  0.000  0.000  0.750-   4 1.43   4 1.43   4 1.43
   3  0.333  0.667  0.250-   1 1.43   1 1.43   1 1.43
   4  0.667  0.333  0.750-   2 1.43   2 1.43   2 1.43

  LATTYP: Found a hexagonal cell.
 ALAT       =     2.4685700000
 C/A-ratio  =     3.5813406142

  Lattice vectors:

 A1 = (   2.4685700000,   0.0000000000,   0.0000000000)
 A2 = (  -1.2342850000,   2.1378443310,   0.0000000000)
 A3 = (   0.0000000000,   0.0000000000,   8.8407900000)

Analysis of symmetry for initial positions (statically):
 Subroutine PRICEL returns:
 Original cell was already a primitive cell.

 Routine SETGRP: Setting up the symmetry group for a
 hexagonal supercell.

 Subroutine GETGRP returns: Found 24 space group operations
 (whereof 12 operations were pure point group operations)
 out of a pool of 24 trial point group operations.

The static configuration has the point symmetry D_3d.
 The point group associated with its full space group is D_6h.

Analysis of symmetry for dynamics (positions and initial velocities):
 Subroutine PRICEL returns:
 Original cell was already a primitive cell.

 Routine SETGRP: Setting up the symmetry group for a
 hexagonal supercell.

 Subroutine GETGRP returns: Found 24 space group operations
 (whereof 12 operations were pure point group operations)
 out of a pool of 24 trial point group operations.

The dynamic configuration has the point symmetry D_3d.
 The point group associated with its full space group is D_6h.

 Subroutine INISYM returns: Found 24 space group operations
 (whereof 12 operations are pure point group operations),
 and found     1 'primitive' translations

                                     Primitive cell

  volume of cell :      46.6565

  direct lattice vectors                    reciprocal lattice vectors
     2.468570000  0.000000000  0.000000000     0.405092827  0.233880453  0.000000000
    -1.234285000  2.137844331  0.000000000     0.000000000  0.467760905  0.000000000
     0.000000000  0.000000000  8.840790000    -0.000000000 -0.000000000  0.113112064

  length of vectors
     2.468570000  2.468570000  8.840790000     0.467760905  0.467760905  0.113112064

  position of ions in fractional coordinates (direct lattice)
     0.000000000  0.000000000  0.250000000
     0.000000000  0.000000000  0.750000000
     0.333333333  0.666666667  0.250000000
     0.666666667  0.333333333  0.750000000

  ion indices of the primitive-cell ions
   primitive index   ion index
                 1           1
                 2           2
                 3           3
                 4           4

 KPOINTS: Automatic kpoint scheme

Automatic generation of k-mesh.
 Grid dimensions read from file:
 generate k-points for:    8    8    8

 Generating k-lattice:

  Cartesian coordinates                     Fractional coordinates (reciprocal lattice)
     0.050636603  0.029235057  0.000000000     0.125000000 -0.000000000  0.000000000
     0.000000000  0.058470113  0.000000000     0.000000000  0.125000000  0.000000000
    -0.000000000 -0.000000000  0.014139008    -0.000000000 -0.000000000  0.125000000

  Length of vectors
     0.058470113  0.058470113  0.014139008

  Shift w.r.t. Gamma in fractional coordinates (k-lattice)
     0.000000000  0.000000000  0.000000000

 Subroutine IBZKPT returns following result:

 Found     50 irreducible k-points:

 Following reciprocal coordinates:
            Coordinates               Weight
  0.000000  0.000000  0.000000      1.000000
  0.125000 -0.000000  0.000000      6.000000
  0.250000 -0.000000  0.000000      6.000000
  0.375000 -0.000000  0.000000      6.000000
  0.500000 -0.000000  0.000000      3.000000
  0.125000  0.125000  0.000000      6.000000
  0.250000  0.125000  0.000000     12.000000
  0.375000  0.125000  0.000000     12.000000
  0.250000  0.250000  0.000000      6.000000
  0.375000  0.250000  0.000000      6.000000
 -0.000000  0.000000  0.125000      2.000000
  0.125000 -0.000000  0.125000     12.000000
  0.250000 -0.000000  0.125000     12.000000
  0.375000 -0.000000  0.125000     12.000000
  0.500000 -0.000000  0.125000      6.000000
  0.125000  0.125000  0.125000     12.000000
  0.250000  0.125000  0.125000     24.000000
  0.375000  0.125000  0.125000     24.000000
  0.250000  0.250000  0.125000     12.000000
  0.375000  0.250000  0.125000     12.000000
 -0.000000  0.000000  0.250000      2.000000
  0.125000 -0.000000  0.250000     12.000000
  0.250000 -0.000000  0.250000     12.000000
  0.375000 -0.000000  0.250000     12.000000
  0.500000 -0.000000  0.250000      6.000000
  0.125000  0.125000  0.250000     12.000000
  0.250000  0.125000  0.250000     24.000000
  0.375000  0.125000  0.250000     24.000000
  0.250000  0.250000  0.250000     12.000000
  0.375000  0.250000  0.250000     12.000000
 -0.000000 -0.000000  0.375000      2.000000
  0.125000 -0.000000  0.375000     12.000000
  0.250000 -0.000000  0.375000     12.000000
  0.375000 -0.000000  0.375000     12.000000
  0.500000 -0.000000  0.375000      6.000000
  0.125000  0.125000  0.375000     12.000000
  0.250000  0.125000  0.375000     24.000000
  0.375000  0.125000  0.375000     24.000000
  0.250000  0.250000  0.375000     12.000000
  0.375000  0.250000  0.375000     12.000000
 -0.000000  0.000000  0.500000      1.000000
  0.125000  0.000000  0.500000      6.000000
  0.250000 -0.000000  0.500000      6.000000
  0.375000 -0.000000  0.500000      6.000000
  0.500000 -0.000000  0.500000      3.000000
  0.125000  0.125000  0.500000      6.000000
  0.250000  0.125000  0.500000     12.000000
  0.375000  0.125000  0.500000     12.000000
  0.250000  0.250000  0.500000      6.000000
  0.375000  0.250000  0.500000      6.000000

 Following cartesian coordinates:
            Coordinates               Weight
  0.000000  0.000000  0.000000      1.000000
  0.050637  0.029235  0.000000      6.000000
  0.101273  0.058470  0.000000      6.000000
  0.151910  0.087705  0.000000      6.000000
  0.202546  0.116940  0.000000      3.000000
  0.050637  0.087705  0.000000      6.000000
  0.101273  0.116940  0.000000     12.000000
  0.151910  0.146175  0.000000     12.000000
  0.101273  0.175410  0.000000      6.000000
  0.151910  0.204645  0.000000      6.000000
 -0.000000 -0.000000  0.014139      2.000000
  0.050637  0.029235  0.014139     12.000000
  0.101273  0.058470  0.014139     12.000000
  0.151910  0.087705  0.014139     12.000000
  0.202546  0.116940  0.014139      6.000000
  0.050637  0.087705  0.014139     12.000000
  0.101273  0.116940  0.014139     24.000000
  0.151910  0.146175  0.014139     24.000000
  0.101273  0.175410  0.014139     12.000000
  0.151910  0.204645  0.014139     12.000000
 -0.000000 -0.000000  0.028278      2.000000
  0.050637  0.029235  0.028278     12.000000
  0.101273  0.058470  0.028278     12.000000
  0.151910  0.087705  0.028278     12.000000
  0.202546  0.116940  0.028278      6.000000
  0.050637  0.087705  0.028278     12.000000
  0.101273  0.116940  0.028278     24.000000
  0.151910  0.146175  0.028278     24.000000
  0.101273  0.175410  0.028278     12.000000
  0.151910  0.204645  0.028278     12.000000
 -0.000000 -0.000000  0.042417      2.000000
  0.050637  0.029235  0.042417     12.000000
  0.101273  0.058470  0.042417     12.000000
  0.151910  0.087705  0.042417     12.000000
  0.202546  0.116940  0.042417      6.000000
  0.050637  0.087705  0.042417     12.000000
  0.101273  0.116940  0.042417     24.000000
  0.151910  0.146175  0.042417     24.000000
  0.101273  0.175410  0.042417     12.000000
  0.151910  0.204645  0.042417     12.000000
 -0.000000 -0.000000  0.056556      1.000000
  0.050637  0.029235  0.056556      6.000000
  0.101273  0.058470  0.056556      6.000000
  0.151910  0.087705  0.056556      6.000000
  0.202546  0.116940  0.056556      3.000000
  0.050637  0.087705  0.056556      6.000000
  0.101273  0.116940  0.056556     12.000000
  0.151910  0.146175  0.056556     12.000000
  0.101273  0.175410  0.056556      6.000000
  0.151910  0.204645  0.056556      6.000000

 Subroutine IBZKPT_HF returns following result:

 Found    512 k-points in 1st BZ
 the following    512 k-points will be used (e.g. in the exchange kernel)
 Following reciprocal coordinates:   # in IRBZ
  0.000000  0.000000  0.000000    0.00195312   1 t-inv F
  0.125000 -0.000000  0.000000    0.00195312   2 t-inv F
  0.250000 -0.000000  0.000000    0.00195312   3 t-inv F
  0.375000 -0.000000  0.000000    0.00195312   4 t-inv F
  0.500000 -0.000000  0.000000    0.00195312   5 t-inv F
  0.125000  0.125000  0.000000    0.00195312   6 t-inv F
  0.250000  0.125000  0.000000    0.00195312   7 t-inv F
  0.375000  0.125000  0.000000    0.00195312   8 t-inv F
  0.250000  0.250000  0.000000    0.00195312   9 t-inv F
  0.375000  0.250000  0.000000    0.00195312  10 t-inv F
 -0.000000  0.000000  0.125000    0.00195312  11 t-inv F
  0.125000 -0.000000  0.125000    0.00195312  12 t-inv F
  0.250000 -0.000000  0.125000    0.00195312  13 t-inv F
  0.375000 -0.000000  0.125000    0.00195312  14 t-inv F
  0.500000 -0.000000  0.125000    0.00195312  15 t-inv F
  0.125000  0.125000  0.125000    0.00195312  16 t-inv F
  0.250000  0.125000  0.125000    0.00195312  17 t-inv F
  0.375000  0.125000  0.125000    0.00195312  18 t-inv F
  0.250000  0.250000  0.125000    0.00195312  19 t-inv F
[...]
   0.05063660  0.02923506  0.05655603       0.012
   0.10127321  0.05847011  0.05655603       0.012
   0.15190981  0.08770517  0.05655603       0.012
   0.20254641  0.11694023  0.05655603       0.006
   0.05063660  0.08770517  0.05655603       0.012
   0.10127321  0.11694023  0.05655603       0.023
   0.15190981  0.14617528  0.05655603       0.023
   0.10127321  0.17541034  0.05655603       0.012
   0.15190981  0.20464540  0.05655603       0.012

 k-points in reciprocal lattice and weights: Automatic kpoint scheme
   0.00000000  0.00000000  0.00000000       0.002
   0.12500000 -0.00000000  0.00000000       0.012
   0.25000000 -0.00000000  0.00000000       0.012
   0.37500000 -0.00000000  0.00000000       0.012
   0.50000000 -0.00000000  0.00000000       0.006
   0.12500000  0.12500000  0.00000000       0.012
   0.25000000  0.12500000  0.00000000       0.023
   0.37500000  0.12500000  0.00000000       0.023
   0.25000000  0.25000000  0.00000000       0.012
   0.37500000  0.25000000  0.00000000       0.012
  -0.00000000  0.00000000  0.12500000       0.004
   0.12500000 -0.00000000  0.12500000       0.023
   0.25000000 -0.00000000  0.12500000       0.023
   0.37500000 -0.00000000  0.12500000       0.023
   0.50000000 -0.00000000  0.12500000       0.012
   0.12500000  0.12500000  0.12500000       0.023
   0.25000000  0.12500000  0.12500000       0.047
   0.37500000  0.12500000  0.12500000       0.047
   0.25000000  0.25000000  0.12500000       0.023
   0.37500000  0.25000000  0.12500000       0.023
  -0.00000000  0.00000000  0.25000000       0.004
   0.12500000 -0.00000000  0.25000000       0.023
   0.25000000 -0.00000000  0.25000000       0.023
   0.37500000 -0.00000000  0.25000000       0.023
   0.50000000 -0.00000000  0.25000000       0.012
   0.12500000  0.12500000  0.25000000       0.023
   0.25000000  0.12500000  0.25000000       0.047
   0.37500000  0.12500000  0.25000000       0.047
   0.25000000  0.25000000  0.25000000       0.023
   0.37500000  0.25000000  0.25000000       0.023
  -0.00000000 -0.00000000  0.37500000       0.004
   0.12500000 -0.00000000  0.37500000       0.023
   0.25000000 -0.00000000  0.37500000       0.023
   0.37500000 -0.00000000  0.37500000       0.023
   0.50000000 -0.00000000  0.37500000       0.012
   0.12500000  0.12500000  0.37500000       0.023
   0.25000000  0.12500000  0.37500000       0.047
   0.37500000  0.12500000  0.37500000       0.047
   0.25000000  0.25000000  0.37500000       0.023
   0.37500000  0.25000000  0.37500000       0.023
  -0.00000000  0.00000000  0.50000000       0.002
   0.12500000  0.00000000  0.50000000       0.012
   0.25000000 -0.00000000  0.50000000       0.012
   0.37500000 -0.00000000  0.50000000       0.012
   0.50000000 -0.00000000  0.50000000       0.006
   0.12500000  0.12500000  0.50000000       0.012
   0.25000000  0.12500000  0.50000000       0.023
   0.37500000  0.12500000  0.50000000       0.023
   0.25000000  0.25000000  0.50000000       0.012
   0.37500000  0.25000000  0.50000000       0.012

 position of ions in fractional coordinates (direct lattice)
   0.00000000  0.00000000  0.25000000
   0.00000000  0.00000000  0.75000000
   0.33333333  0.66666667  0.25000000
   0.66666667  0.33333333  0.75000000

 position of ions in cartesian coordinates  (Angst):
   0.00000000  0.00000000  2.21019750
   0.00000000  0.00000000  6.63059250
   0.00000000  1.42522955  2.21019750
   1.23428500  0.71261478  6.63059250

 k-point     1 :   0.0000 0.0000 0.0000  plane waves:    1251
 k-point     2 :   0.1250-0.0000 0.0000  plane waves:    1274
 k-point     3 :   0.2500-0.0000 0.0000  plane waves:    1280
 k-point     4 :   0.3750-0.0000 0.0000  plane waves:    1252
 k-point     5 :   0.5000-0.0000 0.0000  plane waves:    1252
 k-point     6 :   0.1250 0.1250 0.0000  plane waves:    1261
 k-point     7 :   0.2500 0.1250 0.0000  plane waves:    1262
 k-point     8 :   0.3750 0.1250 0.0000  plane waves:    1247
 k-point     9 :   0.2500 0.2500 0.0000  plane waves:    1255
 k-point    10 :   0.3750 0.2500 0.0000  plane waves:    1238
 k-point    11 :  -0.0000 0.0000 0.1250  plane waves:    1263
 k-point    12 :   0.1250-0.0000 0.1250  plane waves:    1270
 k-point    13 :   0.2500-0.0000 0.1250  plane waves:    1272
 k-point    14 :   0.3750-0.0000 0.1250  plane waves:    1249
 k-point    15 :   0.5000-0.0000 0.1250  plane waves:    1250
 k-point    16 :   0.1250 0.1250 0.1250  plane waves:    1267
 k-point    17 :   0.2500 0.1250 0.1250  plane waves:    1261
 k-point    18 :   0.3750 0.1250 0.1250  plane waves:    1249
 k-point    19 :   0.2500 0.2500 0.1250  plane waves:    1247
 k-point    20 :   0.3750 0.2500 0.1250  plane waves:    1242
 k-point    21 :  -0.0000 0.0000 0.2500  plane waves:    1269
 k-point    22 :   0.1250-0.0000 0.2500  plane waves:    1270
 k-point    23 :   0.2500-0.0000 0.2500  plane waves:    1273
 k-point    24 :   0.3750-0.0000 0.2500  plane waves:    1251
 k-point    25 :   0.5000-0.0000 0.2500  plane waves:    1248
 k-point    26 :   0.1250 0.1250 0.2500  plane waves:    1263
 k-point    27 :   0.2500 0.1250 0.2500  plane waves:    1263
 k-point    28 :   0.3750 0.1250 0.2500  plane waves:    1250
 k-point    29 :   0.2500 0.2500 0.2500  plane waves:    1243
 k-point    30 :   0.3750 0.2500 0.2500  plane waves:    1235
 k-point    31 :  -0.0000-0.0000 0.3750  plane waves:    1257
 k-point    32 :   0.1250-0.0000 0.3750  plane waves:    1272
 k-point    33 :   0.2500-0.0000 0.3750  plane waves:    1267
 k-point    34 :   0.3750-0.0000 0.3750  plane waves:    1263
 k-point    35 :   0.5000-0.0000 0.3750  plane waves:    1254
 k-point    36 :   0.1250 0.1250 0.3750  plane waves:    1272
 k-point    37 :   0.2500 0.1250 0.3750  plane waves:    1256
 k-point    38 :   0.3750 0.1250 0.3750  plane waves:    1246
 k-point    39 :   0.2500 0.2500 0.3750  plane waves:    1251
 k-point    40 :   0.3750 0.2500 0.3750  plane waves:    1237
 k-point    41 :  -0.0000 0.0000 0.5000  plane waves:    1256
 k-point    42 :   0.1250 0.0000 0.5000  plane waves:    1274
 k-point    43 :   0.2500-0.0000 0.5000  plane waves:    1262
 k-point    44 :   0.3750-0.0000 0.5000  plane waves:    1262
 k-point    45 :   0.5000-0.0000 0.5000  plane waves:    1256
 k-point    46 :   0.1250 0.1250 0.5000  plane waves:    1272
 k-point    47 :   0.2500 0.1250 0.5000  plane waves:    1256
 k-point    48 :   0.3750 0.1250 0.5000  plane waves:    1248
 k-point    49 :   0.2500 0.2500 0.5000  plane waves:    1248
 k-point    50 :   0.3750 0.2500 0.5000  plane waves:    1230

 maximum and minimum number of plane-waves per node :      1280     1230

 maximum number of plane-waves:      1280
 maximum index in each direction:
   IXMAX=    4   IYMAX=    4   IZMAX=   16
   IXMIN=   -5   IYMIN=   -4   IZMIN=  -16

 serial   3D FFT for wavefunctions
 parallel 3D FFT for charge:
    minimum data exchange during FFTs selected (reduces bandwidth)

 Broyden mixing: mesh for mixing (old mesh)
   NGX =  9   NGY =  9   NGZ = 33
  (NGX  = 28   NGY  = 28   NGZ  =100)
  gives a total of   2673 points

 charge density for first step will be calculated from the start-wavefunctions

 Maximum index for augmentation-charges          193 (set IRDMAX)

 initial charge from wavefunction
 First call to EWALD:  gamma=   0.492
 Maximum number of real-space cells 4x 4x 1
 Maximum number of reciprocal cells 2x 2x 6

--------------------------------------- Ionic step        1  -------------------------------------------

--------------------------------------- Iteration      1(   1)  ---------------------------------------

 eigenvalue-minimisations  :  2496
 total energy-change (2. order) :-0.3690070E+02  (-0.9255781E-08)
 number of electron      16.0000000 magnetization
 augmentation part        0.3831414 magnetization

 Broyden mixing:
  rms(total) = 0.27813E-04    rms(broyden)= 0.25609E-04
  rms(prec ) = 0.36878E-04
  weight for this iteration     100.00

 Free energy of the ion-electron system (eV)
  alpha Z        PSCENC =        28.17069677
  Ewald energy   TEWEN  =      -266.01370913
  -Hartree energ DENC   =      -334.39317429
  -exchange      EXHF   =         0.00000000
  -V(xc)+E(xc)   XCENC  =        55.05149368
  PAW double counting   =      1661.87574360    -1664.60873842
  entropy T*S    EENTRO =        -0.00000000
  eigenvalues    EBANDS =      -105.57858728
  atomic energy  EATOM  =       588.59557325
  Solvation  Ediel_sol  =         0.00000000
  free energy    TOTEN  =       -36.90070183 eV

  energy without entropy =      -36.90070183  energy(sigma->0) =      -36.90070183

--------------------------------------- Iteration      1(   2)  ---------------------------------------

 eigenvalue-minimisations  :  2544
 total energy-change (2. order) :-0.1773515E-09  (-0.3600790E-09)
 number of electron      16.0000000 magnetization
 augmentation part        0.3831414 magnetization

 Free energy of the ion-electron system (eV)
  alpha Z        PSCENC =        28.17069677
  Ewald energy   TEWEN  =      -266.01370913
  -Hartree energ DENC   =      -334.39397342
  -exchange      EXHF   =         0.00000000
  -V(xc)+E(xc)   XCENC  =        55.05153350
  PAW double counting   =      1661.87143710    -1664.60444251
  entropy T*S    EENTRO =        -0.00000000
  eigenvalues    EBANDS =      -105.57781740
  atomic energy  EATOM  =       588.59557325
  Solvation  Ediel_sol  =         0.00000000
  free energy    TOTEN  =       -36.90070183 eV

  energy without entropy =      -36.90070183  energy(sigma->0) =      -36.90070183

 average (electrostatic) potential at core
  the test charge radii are     0.6991
  (the norm of the test charge is              1.0000)
       1 -52.9149       2 -52.9149       3 -52.9138       4 -52.9138

 E-fermi :   1.9048     XC(G=0):  -8.4935     alpha+bet : -8.5924

 val. band max:        1.5530206502   @ k =   0.3750   0.2500   0.0000
 cond. band min:       3.4679342032   @ k =   0.3750   0.2500   0.3750
 fundamental gap:      1.9149135530
 Fermi energy:         1.9047869126

 k-point     1 :       0.0000    0.0000    0.0000
  band No.  band energies     occupation
      1     -16.9751      2.00000
      2     -16.9501      2.00000
      3      -5.2547      2.00000
      4      -4.8777      2.00000
      5      -0.5048      2.00000
      6      -0.5048      2.00000
      7      -0.5042      2.00000
      8      -0.5041      2.00000
      9       5.5319      0.00000
     10       8.5229      0.00000
     11      10.8242      0.00000
     12      10.8242      0.00000
     13      10.8272      0.00000
     14      10.8272      0.00000
     15      12.1741      0.00000
     16      13.8958      0.00000
     17      13.9114      0.00000
     18      14.9468      0.00000
     19      14.9631      0.00000
     20      18.1096      0.00000
     21      24.9393      0.00000
     22      24.9473      0.00000
     23      25.0355      0.00000
     24      29.8920      0.00000
     25      30.4365      0.00000
     26      30.4365      0.00000
     27      30.8339      0.00000
     28      30.8339      0.00000
     29      33.8623      0.00000
     30      33.8623      0.00000
     31      34.3877      0.00000
     32      34.6490      0.00000
     33      34.6490      0.00000
     34      36.9526      0.00000
     35      36.9526      0.00000
     36      37.3211      0.00000
     37      37.3211      0.00000
     38      38.1412      0.00000
     39      38.7463      0.00000
     40      39.4852      0.00000
     41      41.2176      0.00000
     42      41.4856      0.00000
     43      41.8364      0.00000
     44      41.8365      0.00000
     45      42.0689      0.00000
     46      42.1494      0.00000
     47      42.1495      0.00000
     48      43.8734      0.00000

[...]

 k-point    50 :       0.3750    0.2500    0.5000
  band No.  band energies     occupation
      1     -10.7873      2.00000
      2     -10.7873      2.00000
      3      -9.9024      2.00000
      4      -9.9024      2.00000
      5      -7.1846      2.00000
      6      -7.1846      2.00000
      7       1.5030      2.00000
      8       1.5030      2.00000
      9       3.4681      0.00000
     10       3.4681      0.00000
     11      13.1907      0.00000
     12      13.1907      0.00000
     13      14.6417      0.00000
     14      14.6417      0.00000
     15      15.3405      0.00000
     16      15.3405      0.00000
     17      16.2242      0.00000
     18      16.2242      0.00000
     19      19.4540      0.00000
     20      19.4540      0.00000
     21      21.0664      0.00000
     22      21.0664      0.00000
     23      21.3279      0.00000
     24      21.3279      0.00000
     25      25.1385      0.00000
     26      25.1385      0.00000
     27      26.8372      0.00000
     28      26.8372      0.00000
     29      27.2409      0.00000
     30      27.2409      0.00000
     31      30.2160      0.00000
     32      30.2160      0.00000
     33      35.3517      0.00000
     34      35.3517      0.00000
     35      37.1421      0.00000
     36      37.1421      0.00000
     37      41.6681      0.00000
     38      41.6681      0.00000
     39      42.6771      0.00000
     40      42.6771      0.00000
     41      43.8995      0.00000
     42      43.8995      0.00000
     43      44.7431      0.00000
     44      44.7431      0.00000
     45      47.0215      0.00000
     46      47.0215      0.00000
     47      47.9625      0.00000
     48      47.9625      0.00000

 soft charge-density along one line, spin component           1
         0         1         2         3         4         5         6         7         8         9
 total charge-density along one line

------------------------ aborting loop because EDIFF is reached ----------------------------------------

  FORCE on cell =-STRESS in cart. coord.  units (eV):
  Direction    XX          YY          ZZ          XY          YZ          ZX
  Alpha Z    28.17070    28.17070    28.17070
  Ewald     271.18079   271.18079  -808.37549     0.00000     0.00000     0.00000
  Hartree   311.71208   311.71208  -289.02871     0.00000     0.00000     0.00000
  E(xc)     -59.38249   -59.38249   -61.60679    -0.00000     0.00000     0.00000
  Local    -775.79702  -775.79717   870.60112    -0.00013    -0.00002    -0.00001
  n-local   -13.74396   -14.68156   -12.97994    -0.59020     0.00140     0.00151
  augment    -1.55262    -1.55254    -1.43259     0.00007    -0.00000     0.00000
  Kinetic   236.91524   242.77776   274.63009     6.16607    -0.02350    -0.02618
  Fock        0.00000     0.00000     0.00000     0.00000     0.00000     0.00000
  Total      -0.03485    -0.03485    -0.02162     0.00000    -0.00000    -0.00000
  in kB      -1.19681    -1.19681    -0.74235     0.00000    -0.00000    -0.00000

 VOLUME and BASIS-vectors are now :
  energy-cutoff  :      520.00
  volume of cell :       46.66
      direct lattice vectors                 reciprocal lattice vectors
     2.468570000  0.000000000  0.000000000     0.405092827  0.233880453  0.000000000
    -1.234285000  2.137844331  0.000000000     0.000000000  0.467760905  0.000000000
     0.000000000  0.000000000  8.840790000    -0.000000000 -0.000000000  0.113112064

  length of vectors
     2.468570000  2.468570000  8.840790000     0.467760905  0.467760905  0.113112064

 FORCES acting on ions
    electron-ion (+dipol)            ewald-force                    non-local-force                 convergence-correction
   0.879E-06 -.507E-06 0.566E-13   0.608E-11 -.350E-11 -.205E-13   0.619E-19 -.310E-16 -.101E-18   -.695E-10 0.401E-10 -.406E-13
   -.879E-06 0.507E-06 0.170E-12   -.608E-11 0.349E-11 0.205E-13   0.524E-16 -.307E-16 0.115E-18   0.695E-10 -.401E-10 0.289E-13
   -.144E-05 0.831E-06 -.513E-12   -.609E-11 0.350E-11 -.205E-13   -.878E-17 -.871E-17 0.358E-19   0.845E-10 -.488E-10 -.408E-13
   0.144E-05 -.831E-06 -.181E-11   0.608E-11 -.350E-11 0.205E-13   0.475E-17 0.441E-16 -.358E-19   -.845E-10 0.488E-10 0.295E-13
   0.514E-13 -.127E-12 -.209E-11   -.857E-14 -.863E-14 -.189E-19   0.484E-16 -.264E-16 0.138E-19   0.208E-14 0.112E-14 -.229E-13

 POSITION                                       TOTAL-FORCE (eV/Angst)
      0.00000      0.00000      2.21020         0.000000     -0.000000      0.000000
      0.00000      0.00000      6.63059        -0.000000      0.000000      0.000000
      0.00000      1.42523      2.21020         0.000000     -0.000000     -0.000000
      1.23428      0.71261      6.63059        -0.000000      0.000000      0.000000
    total drift:                                0.000000     -0.000000     -0.000000

  FREE ENERGIE OF THE ION-ELECTRON SYSTEM (eV)
  free  energy   TOTEN  =       -36.90070183 eV

  energy  without entropy=      -36.90070183  energy(sigma->0) =      -36.90070183

 writing wavefunctions