 vasp.6.4.3 19Mar24 (build Jun 26 2024 13:02:28) complex

 executed on             LinuxIFC date 2025.08.08  18:14:46

 INCAR:
   ENCUT = 271.31260000000003
   IBRION = -1
   ISMEAR = 0
   ISYM = 2
   LCHARG = True
   LWAVE = True
   SIGMA = 0.05
   SYSTEM = As

 POTCAR:  PAW_PBE As 22Sep2009
|           W    W    AA    RRRRR   N    N  II  N    N   GGGG   !!!           |
|           W    W   A  A   R    R  NN   N  II  NN   N  G    G  !!!           |
|           W    W  A    A  R    R  N N  N  II  N N  N  G       !!!           |
|           W WW W  AAAAAA  RRRRR   N  N N  II  N  N N  G  GGG   !            |
|           WW  WW  A    A  R   R   N   NN  II  N   NN  G    G                |
|           W    W  A    A  R    R  N    N  II  N    N   GGGG   !!!           |
|     For optimal performance we recommend to set                             |
|       NCORE = 2 up to number-of-cores-per-socket                            |
|     This setting can greatly improve the performance of VASP for DFT.       |
|     The default, NCORE=1 might be grossly inefficient on modern             |
|     multi-core architectures or massively parallel machines. Do your        |
|     Unfortunately you need to use the default for GW and RPA                |
|     calculations (for HF NCORE is supported but not extensively tested      |
|     yet).                                                                   |

 POTCAR:  PAW_PBE As 22Sep2009
   VRHFIN =As: s2p3

   TITEL  = PAW_PBE As 22Sep2009
   POMASS =   74.922; ZVAL   =    5.000    mass and valenz
   ENMAX  =  208.702; ENMIN  =  156.526 eV

PAW_PBE As 22Sep2009                    :

 POSCAR: As6
  positions in direct lattice

 exchange-correlation table for PE
   RHO(1)=    0.500       N(1)  =     2000
   RHO(2)=  100.500       N(2)  =     4000

 ion  position               nearest neighbor table
   1  0.000  0.000  0.227-   4 2.56   4 2.56   4 2.56
   2  0.000  0.000  0.773-   5 2.56   5 2.56   5 2.56
   3  0.667  0.333  0.560-   6 2.56   6 2.56   6 2.56
   4  0.667  0.333  0.107-   1 2.56   1 2.56   1 2.56
   5  0.333  0.667  0.893-   2 2.56   2 2.56   2 2.56
   6  0.333  0.667  0.440-   3 2.56   3 2.56   3 2.56

  LATTYP: Found a hexagonal cell.
 ALAT       =     3.8205500000
 C/A-ratio  =     2.8241038594

  Lattice vectors:

 A1 = (   3.8205500000,   0.0000000000,   0.0000000000)
 A2 = (  -1.9102750000,   3.3086933564,   0.0000000000)
 A3 = (   0.0000000000,   0.0000000000,  10.7896300000)

Analysis of symmetry for initial positions (statically):
 Subroutine PRICEL returns:
 Original cell was already a primitive cell.

 Routine SETGRP: Setting up the symmetry group for a
 hexagonal supercell.

 Subroutine GETGRP returns: Found 12 space group operations
 (whereof 12 operations were pure point group operations)
 out of a pool of 24 trial point group operations.

The static configuration has the point symmetry D_3d.

Analysis of symmetry for dynamics (positions and initial velocities):
 Subroutine PRICEL returns:
 Original cell was already a primitive cell.

 Routine SETGRP: Setting up the symmetry group for a
 hexagonal supercell.

 Subroutine GETGRP returns: Found 12 space group operations
 (whereof 12 operations were pure point group operations)
 out of a pool of 24 trial point group operations.

The dynamic configuration has the point symmetry D_3d.

 Subroutine INISYM returns: Found 12 space group operations
 (whereof 12 operations are pure point group operations),
 and found     1 'primitive' translations

                                     Primitive cell

  volume of cell :     136.3920

  direct lattice vectors                    reciprocal lattice vectors
     3.820550000  0.000000000  0.000000000     0.261742419  0.151117056  0.000000000
    -1.910275000  3.308693356  0.000000000     0.000000000  0.302234112  0.000000000
     0.000000000  0.000000000 10.789630000    -0.000000000 -0.000000000  0.092681584

  length of vectors
     3.820550000  3.820550000 10.789630000     0.302234112  0.302234112  0.092681584

  position of ions in fractional coordinates (direct lattice)
     0.000000000  0.000000000  0.226570000
     0.000000000  0.000000000  0.773430000
     0.666666667  0.333333333  0.559900000
     0.666666667  0.333333333  0.106760000
     0.333333333  0.666666667  0.893240000
     0.333333333  0.666666667  0.440100000

  ion indices of the primitive-cell ions
   primitive index   ion index
                 1           1
                 2           2
                 3           3
                 4           4
                 5           5
                 6           6

 KPOINTS: Automatic kpoint scheme

Automatic generation of k-mesh.
 Grid dimensions read from file:
 generate k-points for:   12   12   12

 Generating k-lattice:

  Cartesian coordinates                     Fractional coordinates (reciprocal lattice)
     0.021811868  0.012593088  0.000000000     0.083333333  0.000000000  0.000000000
     0.000000000  0.025186176  0.000000000     0.000000000  0.083333333  0.000000000
    -0.000000000 -0.000000000  0.007723465    -0.000000000  0.000000000  0.083333333

  Length of vectors
     0.025186176  0.025186176  0.007723465

  Shift w.r.t. Gamma in fractional coordinates (k-lattice)
     0.000000000  0.000000000  0.000000000

 Subroutine IBZKPT returns following result:

 Found    193 irreducible k-points:

 Following reciprocal coordinates:
            Coordinates               Weight
  0.000000  0.000000  0.000000      1.000000
  0.083333 -0.000000  0.000000      6.000000
  0.166667  0.000000  0.000000      6.000000
  0.250000 -0.000000  0.000000      6.000000
  0.333333  0.000000  0.000000      6.000000
  0.416667 -0.000000  0.000000      6.000000
  0.500000 -0.000000  0.000000      3.000000
  0.083333  0.083333  0.000000      6.000000
  0.166667  0.083333  0.000000     12.000000
  0.250000  0.083333  0.000000     12.000000
  0.333333  0.083333  0.000000     12.000000
  0.416667  0.083333  0.000000     12.000000
  0.166667  0.166667  0.000000      6.000000
  0.250000  0.166667  0.000000     12.000000
  0.333333  0.166667  0.000000     12.000000
  0.416667  0.166667  0.000000      6.000000
  0.250000  0.250000  0.000000      6.000000
  0.333333  0.250000  0.000000     12.000000
  0.333333  0.333333  0.000000      2.000000
  0.000000  0.000000  0.083333      2.000000
  0.083333  0.000000  0.083333      6.000000
  0.000000  0.083333  0.083333      6.000000
  0.166667  0.000000  0.083333      6.000000
  0.000000  0.166667  0.083333      6.000000
  0.250000 -0.000000  0.083333      6.000000
  0.000000  0.250000  0.083333      6.000000
  0.333333  0.000000  0.083333      6.000000
  0.000000  0.333333  0.083333      6.000000
  0.416667 -0.000000  0.083333      6.000000
  0.000000  0.416667  0.083333      6.000000
  0.500000 -0.000000  0.083333      6.000000
  0.083333  0.083333  0.083333     12.000000
  0.166667  0.083333  0.083333     12.000000
 -0.083333  0.250000  0.083333     12.000000
  0.250000  0.083333  0.083333     12.000000
 -0.083333  0.333333  0.083333     12.000000
  0.333333  0.083333  0.083333     12.000000
 -0.083333  0.416667  0.083333     12.000000
  0.416667  0.083333  0.083333     12.000000
 -0.083333  0.500000  0.083333     12.000000
  0.166667  0.166667  0.083333     12.000000
  0.250000  0.166667  0.083333     12.000000
 -0.166667  0.416667  0.083333     12.000000
  0.333333  0.166667  0.083333     12.000000
 -0.166667  0.500000  0.083333     12.000000
  0.416667  0.166667  0.083333     12.000000
  0.250000  0.250000  0.083333     12.000000
  0.333333  0.250000  0.083333     12.000000
 -0.250000 -0.416667  0.083333     12.000000
  0.333333  0.333333  0.083333      4.000000
 -0.000000  0.000000  0.166667      2.000000
  0.083333 -0.000000  0.166667      6.000000
 -0.000000  0.083333  0.166667      6.000000
  0.166667  0.000000  0.166667      6.000000
 -0.000000  0.166667  0.166667      6.000000
  0.250000 -0.000000  0.166667      6.000000
 -0.000000  0.250000  0.166667      6.000000
  0.333333  0.000000  0.166667      6.000000
 -0.000000  0.333333  0.166667      6.000000
  0.416667 -0.000000  0.166667      6.000000
[...]
  0.333333 -0.000000  0.500000      6.000000
  0.416667 -0.000000  0.500000      6.000000
  0.500000 -0.000000  0.500000      3.000000
  0.083333  0.083333  0.500000      6.000000
  0.166667  0.083333  0.500000     12.000000
  0.250000  0.083333  0.500000     12.000000
  0.333333  0.083333  0.500000     12.000000
  0.416667  0.083333  0.500000     12.000000
  0.166667  0.166667  0.500000      6.000000
  0.250000  0.166667  0.500000     12.000000
  0.333333  0.166667  0.500000     12.000000
  0.416667  0.166667  0.500000      6.000000
  0.250000  0.250000  0.500000      6.000000
  0.333333  0.250000  0.500000     12.000000
  0.333333  0.333333  0.500000      2.000000

 Following cartesian coordinates:
            Coordinates               Weight
  0.000000  0.000000  0.000000      1.000000
  0.021812  0.012593  0.000000      6.000000
  0.043624  0.025186  0.000000      6.000000
  0.065436  0.037779  0.000000      6.000000
  0.087247  0.050372  0.000000      6.000000
  0.109059  0.062965  0.000000      6.000000
  0.130871  0.075559  0.000000      3.000000
  0.021812  0.037779  0.000000      6.000000
  0.043624  0.050372  0.000000     12.000000
  0.065436  0.062965  0.000000     12.000000
  0.087247  0.075559  0.000000     12.000000
  0.109059  0.088152  0.000000     12.000000
  0.043624  0.075559  0.000000      6.000000
  0.065436  0.088152  0.000000     12.000000
  0.087247  0.100745  0.000000     12.000000
  0.109059  0.113338  0.000000      6.000000
  0.065436  0.113338  0.000000      6.000000
  0.087247  0.125931  0.000000     12.000000
  0.087247  0.151117  0.000000      2.000000
 -0.000000 -0.000000  0.007723      2.000000
  0.021812  0.012593  0.007723      6.000000
 -0.000000  0.025186  0.007723      6.000000
  0.043624  0.025186  0.007723      6.000000
 -0.000000  0.050372  0.007723      6.000000
  0.065436  0.037779  0.007723      6.000000
 -0.000000  0.075559  0.007723      6.000000
  0.087247  0.050372  0.007723      6.000000
 -0.000000  0.100745  0.007723      6.000000
  0.109059  0.062965  0.007723      6.000000
 -0.000000  0.125931  0.007723      6.000000
  0.130871  0.075559  0.007723      6.000000
  0.021812  0.037779  0.007723     12.000000
  0.043624  0.050372  0.007723     12.000000
 -0.021812  0.062965  0.007723     12.000000
  0.065436  0.062965  0.007723     12.000000
 -0.021812  0.088152  0.007723     12.000000
  0.087247  0.075559  0.007723     12.000000
 -0.021812  0.113338  0.007723     12.000000
  0.109059  0.088152  0.007723     12.000000
 -0.021812  0.138524  0.007723     12.000000
  0.043624  0.075559  0.007723     12.000000
  0.065436  0.088152  0.007723     12.000000
 -0.043624  0.100745  0.007723     12.000000
  0.087247  0.100745  0.007723     12.000000
 -0.043624  0.125931  0.007723     12.000000
  0.109059  0.113338  0.007723     12.000000
  0.065436  0.113338  0.007723     12.000000
  0.087247  0.125931  0.007723     12.000000
 -0.065436 -0.163710  0.007723     12.000000
  0.087247  0.151117  0.007723      4.000000
[...]
   0.41666667 -0.00000000  0.16666667       0.003
[...]
   0.33333333 -0.00000000  0.50000000       0.003
   0.41666667 -0.00000000  0.50000000       0.003
   0.50000000 -0.00000000  0.50000000       0.002
   0.08333333  0.08333333  0.50000000       0.003
   0.16666667  0.08333333  0.50000000       0.007
   0.25000000  0.08333333  0.50000000       0.007
   0.33333333  0.08333333  0.50000000       0.007
   0.41666667  0.08333333  0.50000000       0.007
   0.16666667  0.16666667  0.50000000       0.003
   0.25000000  0.16666667  0.50000000       0.007
   0.33333333  0.16666667  0.50000000       0.007
   0.41666667  0.16666667  0.50000000       0.003
   0.25000000  0.25000000  0.50000000       0.003
   0.33333333  0.25000000  0.50000000       0.007
   0.33333333  0.33333333  0.50000000       0.001

 position of ions in fractional coordinates (direct lattice)
   0.00000000  0.00000000  0.22657000
   0.00000000  0.00000000  0.77343000
   0.66666667  0.33333333  0.55990000
   0.66666667  0.33333333  0.10676000
   0.33333333  0.66666667  0.89324000
   0.33333333  0.66666667  0.44010000

 position of ions in cartesian coordinates  (Angst):
   0.00000000  0.00000000  2.44460647
   0.00000000  0.00000000  8.34502353
   1.91027500  1.10289779  6.04111384
   1.91027500  1.10289779  1.15190090
   0.00000000  2.20579557  9.63772910
   0.00000000  2.20579557  4.74851616

 k-point     1 :   0.0000 0.0000 0.0000  plane waves:    1373
 k-point     2 :   0.0833-0.0000 0.0000  plane waves:    1369
 k-point     3 :   0.1667 0.0000 0.0000  plane waves:    1377
 k-point     4 :   0.2500-0.0000 0.0000  plane waves:    1411
 k-point     5 :   0.3333 0.0000 0.0000  plane waves:    1387
 k-point     6 :   0.4167-0.0000 0.0000  plane waves:    1387
 k-point     7 :   0.5000-0.0000 0.0000  plane waves:    1366
 k-point     8 :   0.0833 0.0833 0.0000  plane waves:    1363
 k-point     9 :   0.1667 0.0833 0.0000  plane waves:    1385
 k-point    10 :   0.2500 0.0833 0.0000  plane waves:    1386
 k-point    11 :   0.3333 0.0833 0.0000  plane waves:    1387
 k-point    12 :   0.4167 0.0833 0.0000  plane waves:    1392
 k-point    13 :   0.1667 0.1667 0.0000  plane waves:    1387
 k-point    14 :   0.2500 0.1667 0.0000  plane waves:    1385
 k-point    15 :   0.3333 0.1667 0.0000  plane waves:    1392
 k-point    16 :   0.4167 0.1667 0.0000  plane waves:    1389
 k-point    17 :   0.2500 0.2500 0.0000  plane waves:    1385
 k-point    18 :   0.3333 0.2500 0.0000  plane waves:    1384
 k-point    19 :   0.3333 0.3333 0.0000  plane waves:    1389
 k-point    20 :   0.0000 0.0000 0.0833  plane waves:    1373
 k-point    21 :   0.0833 0.0000 0.0833  plane waves:    1364
 k-point    22 :   0.0000 0.0833 0.0833  plane waves:    1364
 k-point    23 :   0.1667 0.0000 0.0833  plane waves:    1373
 k-point    24 :   0.0000 0.1667 0.0833  plane waves:    1373
 k-point    25 :   0.2500-0.0000 0.0833  plane waves:    1397
 k-point    26 :   0.0000 0.2500 0.0833  plane waves:    1397
 k-point    27 :   0.3333 0.0000 0.0833  plane waves:    1395
 k-point    28 :   0.0000 0.3333 0.0833  plane waves:    1395
 k-point    29 :   0.4167-0.0000 0.0833  plane waves:    1391
 k-point    30 :   0.0000 0.4167 0.0833  plane waves:    1391
 k-point    31 :   0.5000-0.0000 0.0833  plane waves:    1378
 k-point    32 :   0.0833 0.0833 0.0833  plane waves:    1365
 k-point    33 :   0.1667 0.0833 0.0833  plane waves:    1382
 k-point    34 :  -0.0833 0.2500 0.0833  plane waves:    1382
 k-point    35 :   0.2500 0.0833 0.0833  plane waves:    1384
 k-point    36 :  -0.0833 0.3333 0.0833  plane waves:    1384
 k-point    37 :   0.3333 0.0833 0.0833  plane waves:    1395
 k-point    38 :  -0.0833 0.4167 0.0833  plane waves:    1395
 k-point    39 :   0.4167 0.0833 0.0833  plane waves:    1390
 k-point    40 :  -0.0833 0.5000 0.0833  plane waves:    1390
 k-point    41 :   0.1667 0.1667 0.0833  plane waves:    1383
 k-point    42 :   0.2500 0.1667 0.0833  plane waves:    1385
 k-point    43 :  -0.1667 0.4167 0.0833  plane waves:    1385
 k-point    44 :   0.3333 0.1667 0.0833  plane waves:    1387
 k-point    45 :  -0.1667 0.5000 0.0833  plane waves:    1387
 k-point    46 :   0.4167 0.1667 0.0833  plane waves:    1392
 k-point    47 :   0.2500 0.2500 0.0833  plane waves:    1382
 k-point    48 :   0.3333 0.2500 0.0833  plane waves:    1382
 k-point    49 :  -0.2500-0.4167 0.0833  plane waves:    1382
 k-point    50 :   0.3333 0.3333 0.0833  plane waves:    1374
 k-point    51 :  -0.0000 0.0000 0.1667  plane waves:    1367
 k-point    52 :   0.0833-0.0000 0.1667  plane waves:    1365
 k-point    53 :  -0.0000 0.0833 0.1667  plane waves:    1365
 k-point    54 :   0.1667 0.0000 0.1667  plane waves:    1369
 k-point    55 :  -0.0000 0.1667 0.1667  plane waves:    1369
 k-point    56 :   0.2500-0.0000 0.1667  plane waves:    1385
 k-point    57 :  -0.0000 0.2500 0.1667  plane waves:    1385
 k-point    58 :   0.3333 0.0000 0.1667  plane waves:    1389
 k-point    59 :  -0.0000 0.3333 0.1667  plane waves:    1389
 k-point    60 :   0.4167-0.0000 0.1667  plane waves:    1394
[...]
 k-point   179 :   0.3333-0.0000 0.5000  plane waves:    1388
 k-point   180 :   0.4167-0.0000 0.5000  plane waves:    1384
 k-point   181 :   0.5000-0.0000 0.5000  plane waves:    1392
 k-point   182 :   0.0833 0.0833 0.5000  plane waves:    1362
 k-point   183 :   0.1667 0.0833 0.5000  plane waves:    1370
 k-point   184 :   0.2500 0.0833 0.5000  plane waves:    1386
 k-point   185 :   0.3333 0.0833 0.5000  plane waves:    1388
 k-point   186 :   0.4167 0.0833 0.5000  plane waves:    1388
 k-point   187 :   0.1667 0.1667 0.5000  plane waves:    1382
 k-point   188 :   0.2500 0.1667 0.5000  plane waves:    1382
 k-point   189 :   0.3333 0.1667 0.5000  plane waves:    1392
 k-point   190 :   0.4167 0.1667 0.5000  plane waves:    1384
 k-point   191 :   0.2500 0.2500 0.5000  plane waves:    1390
 k-point   192 :   0.3333 0.2500 0.5000  plane waves:    1394
 k-point   193 :   0.3333 0.3333 0.5000  plane waves:    1398

 maximum and minimum number of plane-waves per node :      1411     1360

 maximum number of plane-waves:      1411
 maximum index in each direction:
   IXMAX=    5   IYMAX=    5   IZMAX=   14
   IXMIN=   -5   IYMIN=   -5   IZMIN=  -14

 serial   3D FFT for wavefunctions
 parallel 3D FFT for charge:
    minimum data exchange during FFTs selected (reduces bandwidth)

 Broyden mixing: mesh for mixing (old mesh)
   NGX = 11   NGY = 11   NGZ = 29
  (NGX  = 32   NGY  = 32   NGZ  = 96)
  gives a total of   3509 points

 charge density for first step will be calculated from the start-wavefunctions

 Maximum index for augmentation-charges          263 (set IRDMAX)

 initial charge from wavefunction
 First call to EWALD:  gamma=   0.344
 Maximum number of real-space cells 4x 4x 2
 Maximum number of reciprocal cells 2x 2x 5

--------------------------------------- Ionic step        1  -------------------------------------------

--------------------------------------- Iteration      1(   1)  ---------------------------------------

 eigenvalue-minimisations  : 10944
 total energy-change (2. order) :-0.2802352E+02  (-0.1002212E-07)
 number of electron      29.9999994 magnetization
 augmentation part       -4.9097034 magnetization

 Broyden mixing:
  rms(total) = 0.26016E-04    rms(broyden)= 0.24701E-04
  rms(prec ) = 0.33172E-04
  weight for this iteration     100.00

 Free energy of the ion-electron system (eV)
  alpha Z        PSCENC =        62.61426706
  Ewald energy   TEWEN  =     -1066.49341655
  -Hartree energ DENC   =       -61.20246991
  -exchange      EXHF   =         0.00000000
  -V(xc)+E(xc)   XCENC  =       -69.72006927
  PAW double counting   =      1249.96881359    -1121.75096002
  entropy T*S    EENTRO =        -0.00043443
  eigenvalues    EBANDS =       -42.54435992
  atomic energy  EATOM  =      1021.10510653
  Solvation  Ediel_sol  =         0.00000000
  free energy    TOTEN  =       -28.02352292 eV

  energy without entropy =      -28.02308849  energy(sigma->0) =      -28.02330571

--------------------------------------- Iteration      1(   2)  ---------------------------------------

 eigenvalue-minimisations  : 11232
 total energy-change (2. order) : 0.3379910E-08  (-0.8666393E-09)
 number of electron      29.9999994 magnetization
 augmentation part       -4.9097034 magnetization

 Free energy of the ion-electron system (eV)
  alpha Z        PSCENC =        62.61426706
  Ewald energy   TEWEN  =     -1066.49341655
  -Hartree energ DENC   =       -61.20256842
  -exchange      EXHF   =         0.00000000
  -V(xc)+E(xc)   XCENC  =       -69.72006551
  PAW double counting   =      1249.96547251    -1121.74762579
  entropy T*S    EENTRO =        -0.00043442
  eigenvalues    EBANDS =       -42.54425832
  atomic energy  EATOM  =      1021.10510653
  Solvation  Ediel_sol  =         0.00000000
  free energy    TOTEN  =       -28.02352292 eV

  energy without entropy =      -28.02308850  energy(sigma->0) =      -28.02330571

 average (electrostatic) potential at core
  the test charge radii are     1.0621
  (the norm of the test charge is              1.0000)
       1 -50.4565       2 -50.4565       3 -50.4566       4 -50.4565       5 -50.4565
       6 -50.4566

 E-fermi :   4.8878     XC(G=0):  -9.7299     alpha+bet : -9.7035

 val. band max:        4.8707190923   @ k =   0.0833  -0.0000   0.1667
 cond. band min:       4.9146491163   @ k =   0.4167  -0.0000   0.4167
 fundamental gap:      0.0439300240
 Fermi energy:         4.8877717546

 k-point     1 :       0.0000    0.0000    0.0000
  band No.  band energies     occupation
      1      -9.7033      2.00000
      2      -8.9302      2.00000
      3      -8.9299      2.00000
      4      -4.0468      2.00000
      5      -4.0465      2.00000
      6      -1.2143      2.00000
      7       2.4875      2.00000
      8       3.0040      2.00000
      9       3.0040      2.00000
     10       3.1678      2.00000
     11       3.1678      2.00000
     12       3.1681      2.00000
     13       3.1681      2.00000
     14       4.0134      2.00000
     15       4.0137      2.00000
     16       6.1618      0.00000
     17       6.1619      0.00000
     18       6.1619      0.00000
     19       6.1619      0.00000
     20       6.5177      0.00000
     21       6.6381      0.00000
     22       6.6382      0.00000
     23       7.6935      0.00000
     24       7.6935      0.00000
     25      11.7990      0.00000
     26      11.7990      0.00000
     27      11.8098      0.00000
     28      11.8100      0.00000
     29      12.1580      0.00000
     30      13.5253      0.00000
     31      13.5253      0.00000
     32      13.5255      0.00000
     33      13.5255      0.00000
     34      13.5986      0.00000
     35      13.6150      0.00000
     36      13.6150      0.00000
     37      13.9680      0.00000
     38      16.9740      0.00000
     39      16.9742      0.00000
     40      17.5791      0.00000
     41      17.5791      0.00000
     42      17.5792      0.00000
     43      17.5792      0.00000
     44      17.6634      0.00000
     45      17.6634      0.00000
     46      19.4960      0.00000
     47      19.4961      0.00000
     48      19.4961      0.00000

[...]

 k-point   193 :       0.3333    0.3333    0.5000
  band No.  band energies     occupation
      1      -6.2330      2.00000
      2      -6.2330      2.00000
      3      -6.2328      2.00000
      4      -6.1452      2.00000
      5      -6.1452      2.00000
      6      -6.1450      2.00000
      7      -0.5958      2.00000
      8      -0.5956      2.00000
      9      -0.5956      2.00000
     10       0.9164      2.00000
     11       0.9165      2.00000
     12       0.9165      2.00000
     13       2.9523      2.00000
     14       2.9524      2.00000
     15       2.9524      2.00000
     16       5.8213      0.00000
     17       5.8214      0.00000
     18       5.8214      0.00000
     19       9.4616      0.00000
     20       9.4616      0.00000
     21       9.4616      0.00000
     22       9.5222      0.00000
     23       9.5222      0.00000
     24       9.5222      0.00000
     25      11.7462      0.00000
     26      11.7462      0.00000
     27      11.7464      0.00000
     28      12.1661      0.00000
     29      12.1664      0.00000
     30      12.1664      0.00000
     31      15.5101      0.00000
     32      15.5101      0.00000
     33      15.5102      0.00000
     34      17.5195      0.00000
     35      17.5195      0.00000
     36      17.5196      0.00000
     37      17.8931      0.00000
     38      17.8931      0.00000
     39      17.8932      0.00000
     40      19.1483      0.00000
     41      19.1485      0.00000
     42      19.1485      0.00000
     43      21.9474      0.00000
     44      21.9477      0.00000
     45      21.9477      0.00000
     46      23.4337      0.00000
     47      23.4338      0.00000
     48      23.4338      0.00000

 soft charge-density along one line, spin component           1
         0         1         2         3         4         5         6         7         8         9
 total charge-density along one line

------------------------ aborting loop because EDIFF is reached ----------------------------------------

  FORCE on cell =-STRESS in cart. coord.  units (eV):
  Direction    XX          YY          ZZ          XY          YZ          ZX
  Alpha Z    62.61427    62.61427    62.61427
  Ewald    -337.42934  -337.42934  -391.63627    -0.00000     0.00000     0.00000
  Hartree    25.98506    25.98506     9.23267    -0.00000    -0.00000    -0.00000
  E(xc)    -111.16323  -111.16323  -111.35546    -0.00001    -0.00000    -0.00000
  Local    -123.30416  -123.30467   -61.69472    -0.00044    -0.00001    -0.00001
  n-local   222.04970   221.10851   221.76911    -0.29907    -0.34243     0.01557
  augment    -8.62946    -8.62894    -9.26033     0.00045     0.00000     0.00000
  Kinetic   270.64738   269.63825   280.13564    -7.00318    -0.33099     1.20220
  Fock        0.00000     0.00000     0.00000     0.00000     0.00000     0.00000
  Total      -0.20494    -0.20494    -0.19508    -0.00000    -0.00000     0.00000
  in kB      -2.40739    -2.40739    -2.29157    -0.00000    -0.00000     0.00000

 VOLUME and BASIS-vectors are now :
  energy-cutoff  :      271.31
  volume of cell :      136.39
      direct lattice vectors                 reciprocal lattice vectors
     3.820550000  0.000000000  0.000000000     0.261742419  0.151117056  0.000000000
    -1.910275000  3.308693356  0.000000000     0.000000000  0.302234112  0.000000000
     0.000000000  0.000000000 10.789630000    -0.000000000 -0.000000000  0.092681584

  length of vectors
     3.820550000  3.820550000 10.789630000     0.302234112  0.302234112  0.092681584

 FORCES acting on ions
    electron-ion (+dipol)            ewald-force                    non-local-force                 convergence-correction
   0.100E-05 -.160E-05 -.168E+02   -.121E-11 0.704E-12 0.210E+02   0.808E-17 0.324E-18 -.420E+01   -.169E-10 0.101E-10 -.119E-03
   -.100E-05 0.160E-05 0.168E+02   0.121E-11 -.704E-12 -.210E+02   0.308E-16 0.288E-17 0.420E+01   0.169E-10 -.101E-10 0.119E-03
   -.611E-06 -.122E-05 -.168E+02   0.348E-11 -.202E-11 0.210E+02   -.547E-16 -.161E-17 -.420E+01   -.181E-10 0.109E-10 -.102E-03
   -.205E-05 0.308E-05 0.168E+02   0.224E-11 -.130E-11 -.210E+02   -.367E-17 -.737E-17 0.420E+01   0.174E-10 -.105E-10 0.935E-04
   0.205E-05 -.308E-05 -.168E+02   -.224E-11 0.129E-11 0.210E+02   -.258E-16 -.694E-17 -.420E+01   -.174E-10 0.105E-10 -.935E-04
   0.611E-06 0.122E-05 0.168E+02   -.348E-11 0.202E-11 -.210E+02   0.150E-16 -.132E-17 0.420E+01   0.181E-10 -.109E-10 0.102E-03
   -.614E-13 -.104E-12 -.106E-11   -.556E-14 -.544E-14 0.142E-13   -.302E-16 -.140E-16 0.000E+00   -.869E-15 -.167E-15 0.645E-15

 POSITION                                       TOTAL-FORCE (eV/Angst)
      0.00000      0.00000      2.44461        -0.000000      0.000000     -0.002513
      0.00000      0.00000      8.34502         0.000000      0.000000      0.002513
      1.91027      1.10290      6.04111         0.000000      0.000000     -0.001927
      1.91027      1.10290      1.15190        -0.000000     -0.000000      0.002865
      0.00000      2.20580      9.63773         0.000000     -0.000000     -0.002865
      0.00000      2.20580      4.74852         0.000000      0.000000      0.001927
    total drift:                               -0.000000     -0.000000     -0.000000

  FREE ENERGIE OF THE ION-ELECTRON SYSTEM (eV)
  free  energy   TOTEN  =       -28.02352292 eV

  energy  without entropy=      -28.02308850  energy(sigma->0) =      -28.02330571

 writing wavefunctions