 vasp.6.4.3 19Mar24 (build Jun 26 2024 13:02:28) complex

 executed on             LinuxIFC date 2025.08.08  18:16:50

 INCAR:
   ENCUT = 289.458
   IBRION = -1
   ISMEAR = 0
   ISYM = 2
   LCHARG = True
   LWAVE = True
   SIGMA = 0.05
   SYSTEM = Sc

 POTCAR:  PAW_PBE Sc_sv 07Sep2000
|           W    W    AA    RRRRR   N    N  II  N    N   GGGG   !!!           |
|           W    W   A  A   R    R  NN   N  II  NN   N  G    G  !!!           |
|           W    W  A    A  R    R  N N  N  II  N N  N  G       !!!           |
|           W WW W  AAAAAA  RRRRR   N  N N  II  N  N N  G  GGG   !            |
|           WW  WW  A    A  R   R   N   NN  II  N   NN  G    G                |
|           W    W  A    A  R    R  N    N  II  N    N   GGGG   !!!           |
|     For optimal performance we recommend to set                             |
|       NCORE = 2 up to number-of-cores-per-socket                            |
|     This setting can greatly improve the performance of VASP for DFT.       |
|     The default, NCORE=1 might be grossly inefficient on modern             |
|     multi-core architectures or massively parallel machines. Do your        |
|     Unfortunately you need to use the default for GW and RPA                |
|     calculations (for HF NCORE is supported but not extensively tested      |
|     yet).                                                                   |

 POTCAR:  PAW_PBE Sc_sv 07Sep2000
   VRHFIN =Sc: 3p4s3d

   TITEL  = PAW_PBE Sc_sv 07Sep2000
   POMASS =   44.956; ZVAL   =   11.000    mass and valenz
   ENMAX  =  222.660; ENMIN  =  166.995 eV

PAW_PBE Sc_sv 07Sep2000                 :

 POSCAR: Sc2
  positions in direct lattice

 exchange-correlation table for PE
   RHO(1)=    0.500       N(1)  =     2000
   RHO(2)=  100.500       N(2)  =     4000

 ion  position               nearest neighbor table
   1  0.000  0.000  0.000-   2 3.22   2 3.22   2 3.22   2 3.22   2 3.22   2 3.22
   2  0.333  0.333  0.500-   1 3.22   1 3.22   1 3.22   1 3.22   1 3.22   1 3.22

  LATTYP: Found a hexagonal cell.
 ALAT       =     3.3214500000
 C/A-ratio  =     1.5541164251

  Lattice vectors:

 A1 = (  -1.6607250000,  -2.8764600774,   0.0000000000)
 A2 = (   3.3214500000,   0.0000000000,   0.0000000000)
 A3 = (   0.0000000000,   0.0000000000,   5.1619200000)

Analysis of symmetry for initial positions (statically):
 Subroutine PRICEL returns:
 Original cell was already a primitive cell.

 Routine SETGRP: Setting up the symmetry group for a
 hexagonal supercell.

 Subroutine GETGRP returns: Found 24 space group operations
 (whereof 12 operations were pure point group operations)
 out of a pool of 24 trial point group operations.

The static configuration has the point symmetry D_3h.
 The point group associated with its full space group is D_6h.

Analysis of symmetry for dynamics (positions and initial velocities):
 Subroutine PRICEL returns:
 Original cell was already a primitive cell.

 Routine SETGRP: Setting up the symmetry group for a
 hexagonal supercell.

 Subroutine GETGRP returns: Found 24 space group operations
 (whereof 12 operations were pure point group operations)
 out of a pool of 24 trial point group operations.

The dynamic configuration has the point symmetry D_3h.
 The point group associated with its full space group is D_6h.

 Subroutine INISYM returns: Found 24 space group operations
 (whereof 12 operations are pure point group operations),
 and found     1 'primitive' translations

                                     Primitive cell

  volume of cell :      49.3171

  direct lattice vectors                    reciprocal lattice vectors
     3.321450000  0.000000000  0.000000000     0.301073326 -0.173824766  0.000000000
     1.660725000  2.876460077  0.000000000     0.000000000  0.347649532  0.000000000
     0.000000000  0.000000000  5.161920000    -0.000000000 -0.000000000  0.193726365

  length of vectors
     3.321450000  3.321450000  5.161920000     0.347649532  0.347649532  0.193726365

  position of ions in fractional coordinates (direct lattice)
     0.000000000  0.000000000  0.000000000
     0.333333333  0.333333333  0.500000000

  ion indices of the primitive-cell ions
   primitive index   ion index
                 1           1
                 2           2

 KPOINTS: Automatic kpoint scheme

Automatic generation of k-mesh.
 Grid dimensions read from file:
 generate k-points for:    8    8    8

 Generating k-lattice:

  Cartesian coordinates                     Fractional coordinates (reciprocal lattice)
     0.037634166 -0.021728096  0.000000000     0.125000000  0.000000000  0.000000000
     0.000000000  0.043456192  0.000000000     0.000000000  0.125000000  0.000000000
    -0.000000000 -0.000000000  0.024215796    -0.000000000 -0.000000000  0.125000000

  Length of vectors
     0.043456192  0.043456192  0.024215796

  Shift w.r.t. Gamma in fractional coordinates (k-lattice)
     0.000000000  0.000000000  0.000000000

 Subroutine IBZKPT returns following result:

 Found     50 irreducible k-points:

 Following reciprocal coordinates:
            Coordinates               Weight
  0.000000  0.000000  0.000000      1.000000
  0.125000 -0.000000  0.000000      6.000000
  0.250000 -0.000000  0.000000      6.000000
  0.375000  0.000000  0.000000      6.000000
  0.500000 -0.000000  0.000000      3.000000
  0.250000  0.125000  0.000000      6.000000
  0.375000  0.125000  0.000000     12.000000
  0.500000  0.125000  0.000000     12.000000
  0.500000  0.250000  0.000000      6.000000
 -0.375000  0.250000  0.000000      6.000000
  0.000000  0.000000  0.125000      2.000000
  0.125000  0.000000  0.125000     12.000000
  0.250000  0.000000  0.125000     12.000000
  0.375000  0.000000  0.125000     12.000000
  0.500000 -0.000000  0.125000      6.000000
  0.250000  0.125000  0.125000     12.000000
  0.375000  0.125000  0.125000     24.000000
  0.500000  0.125000  0.125000     24.000000
  0.500000  0.250000  0.125000     12.000000
 -0.375000  0.250000  0.125000     12.000000
  0.000000  0.000000  0.250000      2.000000
  0.125000  0.000000  0.250000     12.000000
  0.250000  0.000000  0.250000     12.000000
  0.375000  0.000000  0.250000     12.000000
  0.500000  0.000000  0.250000      6.000000
  0.250000  0.125000  0.250000     12.000000
  0.375000  0.125000  0.250000     24.000000
  0.500000  0.125000  0.250000     24.000000
  0.500000  0.250000  0.250000     12.000000
 -0.375000  0.250000  0.250000     12.000000
 -0.000000  0.000000  0.375000      2.000000
  0.125000 -0.000000  0.375000     12.000000
  0.250000  0.000000  0.375000     12.000000
  0.375000  0.000000  0.375000     12.000000
  0.500000  0.000000  0.375000      6.000000
  0.250000  0.125000  0.375000     12.000000
  0.375000  0.125000  0.375000     24.000000
  0.500000  0.125000  0.375000     24.000000
  0.500000  0.250000  0.375000     12.000000
 -0.375000  0.250000  0.375000     12.000000
  0.000000  0.000000  0.500000      1.000000
  0.125000 -0.000000  0.500000      6.000000
  0.250000  0.000000  0.500000      6.000000
  0.375000  0.000000  0.500000      6.000000
  0.500000  0.000000  0.500000      3.000000
  0.250000  0.125000  0.500000      6.000000
  0.375000  0.125000  0.500000     12.000000
  0.500000  0.125000  0.500000     12.000000
  0.500000  0.250000  0.500000      6.000000
 -0.375000  0.250000  0.500000      6.000000

 Following cartesian coordinates:
            Coordinates               Weight
  0.000000  0.000000  0.000000      1.000000
  0.037634 -0.021728  0.000000      6.000000
  0.075268 -0.043456  0.000000      6.000000
  0.112902 -0.065184  0.000000      6.000000
  0.150537 -0.086912  0.000000      3.000000
  0.075268 -0.000000  0.000000      6.000000
  0.112902 -0.021728  0.000000     12.000000
  0.150537 -0.043456  0.000000     12.000000
  0.150537 -0.000000  0.000000      6.000000
 -0.112902  0.152097  0.000000      6.000000
 -0.000000 -0.000000  0.024216      2.000000
  0.037634 -0.021728  0.024216     12.000000
  0.075268 -0.043456  0.024216     12.000000
  0.112902 -0.065184  0.024216     12.000000
  0.150537 -0.086912  0.024216      6.000000
  0.075268 -0.000000  0.024216     12.000000
  0.112902 -0.021728  0.024216     24.000000
  0.150537 -0.043456  0.024216     24.000000
  0.150537 -0.000000  0.024216     12.000000
 -0.112902  0.152097  0.024216     12.000000
 -0.000000 -0.000000  0.048432      2.000000
  0.037634 -0.021728  0.048432     12.000000
  0.075268 -0.043456  0.048432     12.000000
  0.112902 -0.065184  0.048432     12.000000
  0.150537 -0.086912  0.048432      6.000000
  0.075268 -0.000000  0.048432     12.000000
  0.112902 -0.021728  0.048432     24.000000
  0.150537 -0.043456  0.048432     24.000000
  0.150537 -0.000000  0.048432     12.000000
 -0.112902  0.152097  0.048432     12.000000
 -0.000000 -0.000000  0.072647      2.000000
  0.037634 -0.021728  0.072647     12.000000
  0.075268 -0.043456  0.072647     12.000000
  0.112902 -0.065184  0.072647     12.000000
  0.150537 -0.086912  0.072647      6.000000
  0.075268  0.000000  0.072647     12.000000
  0.112902 -0.021728  0.072647     24.000000
  0.150537 -0.043456  0.072647     24.000000
  0.150537 -0.000000  0.072647     12.000000
 -0.112902  0.152097  0.072647     12.000000
 -0.000000 -0.000000  0.096863      1.000000
  0.037634 -0.021728  0.096863      6.000000
  0.075268 -0.043456  0.096863      6.000000
  0.112902 -0.065184  0.096863      6.000000
  0.150537 -0.086912  0.096863      3.000000
  0.075268  0.000000  0.096863      6.000000
  0.112902 -0.021728  0.096863     12.000000
  0.150537 -0.043456  0.096863     12.000000
  0.150537 -0.000000  0.096863      6.000000
 -0.112902  0.152097  0.096863      6.000000

 Subroutine IBZKPT_HF returns following result:

 Found    512 k-points in 1st BZ
 the following    512 k-points will be used (e.g. in the exchange kernel)
 Following reciprocal coordinates:   # in IRBZ
  0.000000  0.000000  0.000000    0.00195312   1 t-inv F
  0.125000 -0.000000  0.000000    0.00195312   2 t-inv F
  0.250000 -0.000000  0.000000    0.00195312   3 t-inv F
  0.375000  0.000000  0.000000    0.00195312   4 t-inv F
  0.500000 -0.000000  0.000000    0.00195312   5 t-inv F
  0.250000  0.125000  0.000000    0.00195312   6 t-inv F
  0.375000  0.125000  0.000000    0.00195312   7 t-inv F
  0.500000  0.125000  0.000000    0.00195312   8 t-inv F
  0.500000  0.250000  0.000000    0.00195312   9 t-inv F
 -0.375000  0.250000  0.000000    0.00195312  10 t-inv F
  0.000000  0.000000  0.125000    0.00195312  11 t-inv F
  0.125000  0.000000  0.125000    0.00195312  12 t-inv F
  0.250000  0.000000  0.125000    0.00195312  13 t-inv F
  0.375000  0.000000  0.125000    0.00195312  14 t-inv F
  0.500000 -0.000000  0.125000    0.00195312  15 t-inv F
  0.250000  0.125000  0.125000    0.00195312  16 t-inv F
  0.375000  0.125000  0.125000    0.00195312  17 t-inv F
  0.500000  0.125000  0.125000    0.00195312  18 t-inv F
  0.500000  0.250000  0.125000    0.00195312  19 t-inv F
 -0.375000  0.250000  0.125000    0.00195312  20 t-inv F
  0.000000  0.000000  0.250000    0.00195312  21 t-inv F
  0.125000  0.000000  0.250000    0.00195312  22 t-inv F
[...]
  -0.11290250  0.15209667  0.04843159       0.023
  -0.00000000 -0.00000000  0.07264739       0.004
   0.03763417 -0.02172810  0.07264739       0.023
   0.07526833 -0.04345619  0.07264739       0.023
   0.11290250 -0.06518429  0.07264739       0.023
   0.15053666 -0.08691238  0.07264739       0.012
   0.07526833  0.00000000  0.07264739       0.023
   0.11290250 -0.02172810  0.07264739       0.047
   0.15053666 -0.04345619  0.07264739       0.047
   0.15053666 -0.00000000  0.07264739       0.023
  -0.11290250  0.15209667  0.07264739       0.023
  -0.00000000 -0.00000000  0.09686318       0.002
   0.03763417 -0.02172810  0.09686318       0.012
   0.07526833 -0.04345619  0.09686318       0.012
   0.11290250 -0.06518429  0.09686318       0.012
   0.15053666 -0.08691238  0.09686318       0.006
   0.07526833  0.00000000  0.09686318       0.012
   0.11290250 -0.02172810  0.09686318       0.023
   0.15053666 -0.04345619  0.09686318       0.023
   0.15053666 -0.00000000  0.09686318       0.012
  -0.11290250  0.15209667  0.09686318       0.012

 k-points in reciprocal lattice and weights: Automatic kpoint scheme
   0.00000000  0.00000000  0.00000000       0.002
   0.12500000 -0.00000000  0.00000000       0.012
   0.25000000 -0.00000000  0.00000000       0.012
   0.37500000  0.00000000  0.00000000       0.012
   0.50000000 -0.00000000  0.00000000       0.006
   0.25000000  0.12500000  0.00000000       0.012
   0.37500000  0.12500000  0.00000000       0.023
   0.50000000  0.12500000  0.00000000       0.023
   0.50000000  0.25000000  0.00000000       0.012
  -0.37500000  0.25000000  0.00000000       0.012
   0.00000000  0.00000000  0.12500000       0.004
   0.12500000  0.00000000  0.12500000       0.023
   0.25000000  0.00000000  0.12500000       0.023
   0.37500000  0.00000000  0.12500000       0.023
   0.50000000 -0.00000000  0.12500000       0.012
   0.25000000  0.12500000  0.12500000       0.023
   0.37500000  0.12500000  0.12500000       0.047
   0.50000000  0.12500000  0.12500000       0.047
   0.50000000  0.25000000  0.12500000       0.023
  -0.37500000  0.25000000  0.12500000       0.023
   0.00000000  0.00000000  0.25000000       0.004
   0.12500000  0.00000000  0.25000000       0.023
   0.25000000  0.00000000  0.25000000       0.023
   0.37500000  0.00000000  0.25000000       0.023
   0.50000000  0.00000000  0.25000000       0.012
   0.25000000  0.12500000  0.25000000       0.023
   0.37500000  0.12500000  0.25000000       0.047
   0.50000000  0.12500000  0.25000000       0.047
   0.50000000  0.25000000  0.25000000       0.023
  -0.37500000  0.25000000  0.25000000       0.023
  -0.00000000  0.00000000  0.37500000       0.004
   0.12500000 -0.00000000  0.37500000       0.023
   0.25000000  0.00000000  0.37500000       0.023
   0.37500000  0.00000000  0.37500000       0.023
   0.50000000  0.00000000  0.37500000       0.012
   0.25000000  0.12500000  0.37500000       0.023
   0.37500000  0.12500000  0.37500000       0.047
   0.50000000  0.12500000  0.37500000       0.047
   0.50000000  0.25000000  0.37500000       0.023
  -0.37500000  0.25000000  0.37500000       0.023
   0.00000000  0.00000000  0.50000000       0.002
   0.12500000 -0.00000000  0.50000000       0.012
   0.25000000  0.00000000  0.50000000       0.012
   0.37500000  0.00000000  0.50000000       0.012
   0.50000000  0.00000000  0.50000000       0.006
   0.25000000  0.12500000  0.50000000       0.012
   0.37500000  0.12500000  0.50000000       0.023
   0.50000000  0.12500000  0.50000000       0.023
   0.50000000  0.25000000  0.50000000       0.012
  -0.37500000  0.25000000  0.50000000       0.012

 position of ions in fractional coordinates (direct lattice)
   0.00000000  0.00000000  0.00000000
   0.33333333  0.33333333  0.50000000

 position of ions in cartesian coordinates  (Angst):
   0.00000000  0.00000000  0.00000000
   1.66072500  0.95882003  2.58096000

 k-point     1 :   0.0000 0.0000 0.0000  plane waves:     561
 k-point     2 :   0.1250-0.0000 0.0000  plane waves:     558
 k-point     3 :   0.2500-0.0000 0.0000  plane waves:     554
 k-point     4 :   0.3750 0.0000 0.0000  plane waves:     548
 k-point     5 :   0.5000-0.0000 0.0000  plane waves:     548
 k-point     6 :   0.2500 0.1250 0.0000  plane waves:     559
 k-point     7 :   0.3750 0.1250 0.0000  plane waves:     554
 k-point     8 :   0.5000 0.1250 0.0000  plane waves:     545
 k-point     9 :   0.5000 0.2500 0.0000  plane waves:     549
 k-point    10 :  -0.3750 0.2500 0.0000  plane waves:     550
 k-point    11 :   0.0000 0.0000 0.1250  plane waves:     555
 k-point    12 :   0.1250 0.0000 0.1250  plane waves:     565
 k-point    13 :   0.2500 0.0000 0.1250  plane waves:     558
 k-point    14 :   0.3750 0.0000 0.1250  plane waves:     548
 k-point    15 :   0.5000-0.0000 0.1250  plane waves:     548
 k-point    16 :   0.2500 0.1250 0.1250  plane waves:     555
 k-point    17 :   0.3750 0.1250 0.1250  plane waves:     554
 k-point    18 :   0.5000 0.1250 0.1250  plane waves:     546
 k-point    19 :   0.5000 0.2500 0.1250  plane waves:     545
 k-point    20 :  -0.3750 0.2500 0.1250  plane waves:     539
 k-point    21 :   0.0000 0.0000 0.2500  plane waves:     548
 k-point    22 :   0.1250 0.0000 0.2500  plane waves:     557
 k-point    23 :   0.2500 0.0000 0.2500  plane waves:     560
 k-point    24 :   0.3750 0.0000 0.2500  plane waves:     551
 k-point    25 :   0.5000 0.0000 0.2500  plane waves:     552
 k-point    26 :   0.2500 0.1250 0.2500  plane waves:     553
 k-point    27 :   0.3750 0.1250 0.2500  plane waves:     552
 k-point    28 :   0.5000 0.1250 0.2500  plane waves:     547
 k-point    29 :   0.5000 0.2500 0.2500  plane waves:     542
 k-point    30 :  -0.3750 0.2500 0.2500  plane waves:     539
 k-point    31 :  -0.0000 0.0000 0.3750  plane waves:     542
 k-point    32 :   0.1250-0.0000 0.3750  plane waves:     551
 k-point    33 :   0.2500 0.0000 0.3750  plane waves:     560
 k-point    34 :   0.3750 0.0000 0.3750  plane waves:     554
 k-point    35 :   0.5000 0.0000 0.3750  plane waves:     558
 k-point    36 :   0.2500 0.1250 0.3750  plane waves:     551
 k-point    37 :   0.3750 0.1250 0.3750  plane waves:     554
 k-point    38 :   0.5000 0.1250 0.3750  plane waves:     553
 k-point    39 :   0.5000 0.2500 0.3750  plane waves:     549
 k-point    40 :  -0.3750 0.2500 0.3750  plane waves:     544
 k-point    41 :   0.0000 0.0000 0.5000  plane waves:     542
 k-point    42 :   0.1250-0.0000 0.5000  plane waves:     556
 k-point    43 :   0.2500 0.0000 0.5000  plane waves:     556
 k-point    44 :   0.3750 0.0000 0.5000  plane waves:     548
 k-point    45 :   0.5000 0.0000 0.5000  plane waves:     540
 k-point    46 :   0.2500 0.1250 0.5000  plane waves:     554
 k-point    47 :   0.3750 0.1250 0.5000  plane waves:     554
 k-point    48 :   0.5000 0.1250 0.5000  plane waves:     552
 k-point    49 :   0.5000 0.2500 0.5000  plane waves:     558
 k-point    50 :  -0.3750 0.2500 0.5000  plane waves:     550

 maximum and minimum number of plane-waves per node :       565      539

 maximum number of plane-waves:       565
 maximum index in each direction:
   IXMAX=    4   IYMAX=    4   IZMAX=    7
   IXMIN=   -5   IYMIN=   -4   IZMIN=   -7

 serial   3D FFT for wavefunctions
 parallel 3D FFT for charge:
    minimum data exchange during FFTs selected (reduces bandwidth)

 Broyden mixing: mesh for mixing (old mesh)
   NGX =  9   NGY =  9   NGZ = 15
  (NGX  = 28   NGY  = 28   NGZ  = 48)
  gives a total of   1215 points

 charge density for first step will be calculated from the start-wavefunctions

 Maximum index for augmentation-charges          291 (set IRDMAX)

 initial charge from wavefunction
 First call to EWALD:  gamma=   0.483
 Maximum number of real-space cells 3x 3x 2
 Maximum number of reciprocal cells 3x 3x 4

--------------------------------------- Ionic step        1  -------------------------------------------

--------------------------------------- Iteration      1(   1)  ---------------------------------------

 eigenvalue-minimisations  :  2400
 total energy-change (2. order) :-0.1249415E+02  (-0.6223200E-06)
 number of electron      22.0000016 magnetization
 augmentation part        6.2029043 magnetization

 Broyden mixing:
  rms(total) = 0.38863E-03    rms(broyden)= 0.38450E-03
  rms(prec ) = 0.65357E-03
  weight for this iteration     100.00

 Free energy of the ion-electron system (eV)
  alpha Z        PSCENC =       120.55047640
  Ewald energy   TEWEN  =     -1728.32058351
  -Hartree energ DENC   =      -602.65832929
  -exchange      EXHF   =         0.00000000
  -V(xc)+E(xc)   XCENC  =       100.14141620
  PAW double counting   =      2144.10616444    -2132.54560316
  entropy T*S    EENTRO =        -0.00507999
  eigenvalues    EBANDS =      -460.26464458
  atomic energy  EATOM  =      2546.50203649
  Solvation  Ediel_sol  =         0.00000000
  free energy    TOTEN  =       -12.49414699 eV

  energy without entropy =      -12.48906700  energy(sigma->0) =      -12.49160699

--------------------------------------- Iteration      1(   2)  ---------------------------------------

 eigenvalue-minimisations  :  2400
 total energy-change (2. order) : 0.1981816E-06  (-0.1097000E-06)
 number of electron      22.0000016 magnetization
 augmentation part        6.2029043 magnetization

 Free energy of the ion-electron system (eV)
  alpha Z        PSCENC =       120.55047640
  Ewald energy   TEWEN  =     -1728.32058351
  -Hartree energ DENC   =      -602.67439875
  -exchange      EXHF   =         0.00000000
  -V(xc)+E(xc)   XCENC  =       100.14226510
  PAW double counting   =      2144.07427110    -2132.51316150
  entropy T*S    EENTRO =        -0.00507795
  eigenvalues    EBANDS =      -460.24997418
  atomic energy  EATOM  =      2546.50203649
  Solvation  Ediel_sol  =         0.00000000
  free energy    TOTEN  =       -12.49414679 eV

  energy without entropy =      -12.48906885  energy(sigma->0) =      -12.49160782

 average (electrostatic) potential at core
  the test charge radii are     1.0854
  (the norm of the test charge is              1.0000)
       1 -47.2529       2 -47.2528

 E-fermi :   3.6758     XC(G=0):  -9.8756     alpha+bet :-10.5424

 val. band max:        3.6697926318   @ k =   0.2500   0.1250   0.0000
 cond. band min:       3.6861475954   @ k =   0.3750   0.1250   0.0000
 fundamental gap:      0.0163549637
 Fermi energy:         3.6758449297

 k-point     1 :       0.0000    0.0000    0.0000
  band No.  band energies     occupation
      1     -45.7262      2.00000
      2     -45.6546      2.00000
      3     -24.5656      2.00000
      4     -24.2318      2.00000
      5     -24.2318      2.00000
      6     -24.1650      2.00000
      7     -24.1650      2.00000
      8     -24.1300      2.00000
      9      -1.4494      2.00000
     10       2.0500      2.00000
     11       4.3083      0.00000
     12       5.2649      0.00000
     13       5.2649      0.00000
     14       5.5430      0.00000
     15       5.7168      0.00000
     16       5.7168      0.00000
     17       5.9801      0.00000
     18       5.9801      0.00000
     19       7.3223      0.00000
     20       7.3223      0.00000
     21      10.7536      0.00000
     22      15.6272      0.00000
     23      17.8595      0.00000
     24      18.2617      0.00000
     25      18.6786      0.00000
     26      18.6786      0.00000
     27      20.0079      0.00000
     28      20.0079      0.00000
     29      21.1219      0.00000
     30      21.1219      0.00000
     31      21.6050      0.00000
     32      24.3338      0.00000
     33      24.3339      0.00000
     34      24.3378      0.00000
     35      25.7057      0.00000
     36      26.1670      0.00000
     37      26.1670      0.00000
     38      26.8876      0.00000
     39      26.8876      0.00000
     40      28.3636      0.00000
     41      33.2747      0.00000
     42      37.3501      0.00000
     43      37.3502      0.00000
     44      37.4417      0.00000
     45      37.4418      0.00000
     46      37.4775      0.00000
     47      37.4775      0.00000
     48      40.7728      0.00000

[...]

 k-point    50 :      -0.3750    0.2500    0.5000
  band No.  band energies     occupation
      1     -45.6555      2.00000
      2     -45.6554      2.00000
      3     -24.4876      2.00000
      4     -24.4876      2.00000
      5     -24.3571      2.00000
      6     -24.3571      2.00000
      7     -24.2068      2.00000
      8     -24.2068      2.00000
      9       2.9507      2.00000
     10       2.9507      2.00000
     11       3.8427      0.00000
     12       3.8427      0.00000
     13       3.9547      0.00000
     14       3.9547      0.00000
     15       6.0647      0.00000
     16       6.0647      0.00000
     17       7.3290      0.00000
     18       7.3290      0.00000
     19       9.0266      0.00000
     20       9.0266      0.00000
     21      10.8612      0.00000
     22      10.8612      0.00000
     23      11.8046      0.00000
     24      11.8046      0.00000
     25      17.4413      0.00000
     26      17.4413      0.00000
     27      19.4192      0.00000
     28      19.4192      0.00000
     29      20.8177      0.00000
     30      20.8178      0.00000
     31      24.2108      0.00000
     32      24.2108      0.00000
     33      27.2854      0.00000
     34      27.2854      0.00000
     35      28.4991      0.00000
     36      28.4991      0.00000
     37      31.9528      0.00000
     38      31.9529      0.00000
     39      34.7588      0.00000
     40      34.7588      0.00000
     41      35.4048      0.00000
     42      35.4049      0.00000
     43      36.7137      0.00000
     44      36.7137      0.00000
     45      37.4799      0.00000
     46      37.4800      0.00000
     47      39.3518      0.00000
     48      39.3519      0.00000

 soft charge-density along one line, spin component           1
         0         1         2         3         4         5         6         7         8         9
 total charge-density along one line

------------------------ aborting loop because EDIFF is reached ----------------------------------------

  FORCE on cell =-STRESS in cart. coord.  units (eV):
  Direction    XX          YY          ZZ          XY          YZ          ZX
  Alpha Z   120.55048   120.55048   120.55048
  Ewald    -587.46317  -587.46317  -553.39545    -0.00000     0.00000     0.00000
  Hartree   194.61027   194.61027   213.46432     0.00000    -0.00000    -0.00000
  E(xc)    -104.52232  -104.52235  -104.45889     0.00002    -0.00001    -0.00002
  Local     150.65100   150.65088    98.13661     0.00011    -0.00003    -0.00005
  n-local  -106.73223  -101.10517  -104.35766     2.75634    -0.14832     0.22001
  augment    56.89554    56.89554    56.96144    -0.00000     0.00002     0.00003
  Kinetic   275.94206   270.10505   273.09039    -1.88254    -0.73609     0.02542
  Fock        0.00000     0.00000     0.00000     0.00000     0.00000     0.00000
  Total      -0.17343    -0.17343    -0.00877    -0.00000    -0.00000    -0.00000
  in kB      -5.63415    -5.63415    -0.28499    -0.00000    -0.00000    -0.00000

 VOLUME and BASIS-vectors are now :
  energy-cutoff  :      289.46
  volume of cell :       49.32
      direct lattice vectors                 reciprocal lattice vectors
     3.321450000  0.000000000  0.000000000     0.301073326 -0.173824766  0.000000000
     1.660725000  2.876460077  0.000000000     0.000000000  0.347649532  0.000000000
     0.000000000  0.000000000  5.161920000    -0.000000000 -0.000000000  0.193726365

  length of vectors
     3.321450000  3.321450000  5.161920000     0.347649532  0.347649532  0.193726365

 FORCES acting on ions
    electron-ion (+dipol)            ewald-force                    non-local-force                 convergence-correction
   0.113E-06 0.651E-07 -.172E-08   0.114E-11 0.638E-12 -.193E-13   -.211E-16 -.145E-16 0.126E-18   -.503E-08 -.291E-08 -.326E-12
   0.483E-06 0.279E-06 -.437E-06   -.114E-11 -.637E-12 0.193E-13   0.177E-16 0.113E-16 -.981E-18   0.507E-08 0.293E-08 0.781E-12
   0.596E-06 0.344E-06 -.439E-06   -.156E-14 0.156E-14 -.230E-16   -.343E-17 -.326E-17 -.855E-18   0.399E-10 0.231E-10 0.454E-12

 POSITION                                       TOTAL-FORCE (eV/Angst)
      0.00000      0.00000      0.00000        -0.000000      0.000000     -0.000000
      1.66073      0.95882      2.58096         0.000000     -0.000000      0.000000
    total drift:                                0.000001      0.000000     -0.000000

  FREE ENERGIE OF THE ION-ELECTRON SYSTEM (eV)
  free  energy   TOTEN  =       -12.49414679 eV

  energy  without entropy=      -12.48906885  energy(sigma->0) =      -12.49160782

 writing wavefunctions