 vasp.6.4.3 19Mar24 (build Jun 26 2024 13:02:28) complex

 executed on             LinuxIFC date 2025.08.08  18:47:28

 INCAR:
   ENCUT = 240.9303
   IBRION = -1
   ISMEAR = 0
   ISYM = 2
   LCHARG = True
   LWAVE = True
   SIGMA = 0.05
   SYSTEM = Kr

 POTCAR:  PAW_PBE Kr 07Sep2000
|           W    W    AA    RRRRR   N    N  II  N    N   GGGG   !!!           |
|           W    W   A  A   R    R  NN   N  II  NN   N  G    G  !!!           |
|           W    W  A    A  R    R  N N  N  II  N N  N  G       !!!           |
|           W WW W  AAAAAA  RRRRR   N  N N  II  N  N N  G  GGG   !            |
|           WW  WW  A    A  R   R   N   NN  II  N   NN  G    G                |
|           W    W  A    A  R    R  N    N  II  N    N   GGGG   !!!           |
|     For optimal performance we recommend to set                             |
|       NCORE = 2 up to number-of-cores-per-socket                            |
|     This setting can greatly improve the performance of VASP for DFT.       |
|     The default, NCORE=1 might be grossly inefficient on modern             |
|     multi-core architectures or massively parallel machines. Do your        |
|     Unfortunately you need to use the default for GW and RPA                |
|     calculations (for HF NCORE is supported but not extensively tested      |
|     yet).                                                                   |

 POTCAR:  PAW_PBE Kr 07Sep2000
   VRHFIN =Kr: s2p6

   TITEL  = PAW_PBE Kr 07Sep2000
   POMASS =   83.800; ZVAL   =    8.000    mass and valenz
   ENMAX  =  185.331; ENMIN  =  138.998 eV

PAW_PBE Kr 07Sep2000                    :

 POSCAR: Kr4
  positions in direct lattice

 exchange-correlation table for PE
   RHO(1)=    0.500       N(1)  =     2000
   RHO(2)=  100.500       N(2)  =     4000

 ion  position               nearest neighbor table
   1  0.000  0.000  0.000-
   2  0.000  0.500  0.500-
   3  0.500  0.000  0.500-
   4  0.500  0.500  0.000-

  LATTYP: Found a simple cubic cell.
 ALAT       =     6.4293000000

  Lattice vectors:

 A1 = (   6.4293000000,   0.0000000000,   0.0000000000)
 A2 = (   0.0000000000,   6.4293000000,   0.0000000000)
 A3 = (   0.0000000000,   0.0000000000,   6.4293000000)

Analysis of symmetry for initial positions (statically):
 Subroutine PRICEL returns following result:

  LATTYP: Found a face centered cubic cell.
 ALAT       =     6.4293000000

[...]

   4 primitive cells build up your supercell.

 Routine SETGRP: Setting up the symmetry group for a
 simple cubic supercell.

 Subroutine GETGRP returns: Found 48 space group operations
 (whereof 48 operations were pure point group operations)
 out of a pool of 48 trial point group operations.

The static configuration has the point symmetry O_h .

Analysis of symmetry for dynamics (positions and initial velocities):
 Subroutine PRICEL returns following result:

  LATTYP: Found a face centered cubic cell.
 ALAT       =     6.4293000000

  Lattice vectors:

 A1 = (   3.2146500000,  -3.2146500000,   0.0000000000)
 A2 = (   3.2146500000,   0.0000000000,   3.2146500000)
 A3 = (   0.0000000000,  -3.2146500000,   3.2146500000)

   4 primitive cells build up your supercell.

 Routine SETGRP: Setting up the symmetry group for a
 simple cubic supercell.

 Subroutine GETGRP returns: Found 48 space group operations
 (whereof 48 operations were pure point group operations)
 out of a pool of 48 trial point group operations.

The dynamic configuration has the point symmetry O_h .

 Subroutine INISYM returns: Found 48 space group operations
 (whereof 48 operations are pure point group operations),
 and found     4 'primitive' translations

                                     Primitive cell

  volume of cell :      66.4402

  direct lattice vectors                    reciprocal lattice vectors
     3.214650000 -3.214650000  0.000000000     0.155537928 -0.155537928 -0.155537928
     3.214650000  0.000000000  3.214650000     0.155537928  0.155537928  0.155537928
     0.000000000 -3.214650000  3.214650000    -0.155537928 -0.155537928  0.155537928

  length of vectors
     4.546201628  4.546201628  4.546201628     0.269399594  0.269399594  0.269399594

  position of ions in fractional coordinates (direct lattice)
     0.000000000  0.000000000  0.000000000

  ion indices of the primitive-cell ions
   primitive index   ion index
                 1           1

 KPOINTS: Automatic kpoint scheme

Automatic generation of k-mesh.
 Grid dimensions read from file:
 generate k-points for:    8    8    8

 Generating k-lattice:

  Cartesian coordinates                     Fractional coordinates (reciprocal lattice)
     0.019442241 -0.000000000  0.000000000     0.125000000 -0.000000000  0.000000000
     0.000000000  0.019442241  0.000000000     0.000000000  0.125000000  0.000000000
    -0.000000000 -0.000000000  0.019442241    -0.000000000 -0.000000000  0.125000000

  Length of vectors
     0.019442241  0.019442241  0.019442241

  Shift w.r.t. Gamma in fractional coordinates (k-lattice)
     0.000000000  0.000000000  0.000000000

 Subroutine IBZKPT returns following result:

 Found     35 irreducible k-points:

 Following reciprocal coordinates:
            Coordinates               Weight
  0.000000  0.000000  0.000000      1.000000
  0.125000  0.000000  0.000000      6.000000
  0.250000  0.000000  0.000000      6.000000
  0.375000  0.000000  0.000000      6.000000
  0.500000  0.000000  0.000000      3.000000
  0.125000  0.125000  0.000000     12.000000
  0.250000  0.125000  0.000000     24.000000
  0.375000  0.125000  0.000000     24.000000
  0.500000  0.125000  0.000000     12.000000
  0.250000  0.250000  0.000000     12.000000
  0.375000  0.250000  0.000000     24.000000
  0.500000  0.250000  0.000000     12.000000
  0.375000  0.375000  0.000000     12.000000
  0.500000  0.375000  0.000000     12.000000
  0.500000  0.500000  0.000000      3.000000
  0.125000  0.125000  0.125000      8.000000
  0.250000  0.125000  0.125000     24.000000
  0.375000  0.125000  0.125000     24.000000
  0.500000  0.125000  0.125000     12.000000
  0.250000  0.250000  0.125000     24.000000
  0.375000  0.250000  0.125000     48.000000
  0.500000  0.250000  0.125000     24.000000
  0.375000  0.375000  0.125000     24.000000
  0.500000  0.375000  0.125000     24.000000
  0.500000  0.500000  0.125000      6.000000
  0.250000  0.250000  0.250000      8.000000
  0.375000  0.250000  0.250000     24.000000
  0.500000  0.250000  0.250000     12.000000
  0.375000  0.375000  0.250000     24.000000
  0.500000  0.375000  0.250000     24.000000
  0.500000  0.500000  0.250000      6.000000
  0.375000  0.375000  0.375000      8.000000
  0.500000  0.375000  0.375000     12.000000
  0.500000  0.500000  0.375000      6.000000
  0.500000  0.500000  0.500000      1.000000

 Following cartesian coordinates:
            Coordinates               Weight
  0.000000  0.000000  0.000000      1.000000
  0.019442 -0.000000  0.000000      6.000000
  0.038884 -0.000000  0.000000      6.000000
  0.058327 -0.000000  0.000000      6.000000
  0.077769 -0.000000  0.000000      3.000000
  0.019442  0.019442  0.000000     12.000000
  0.038884  0.019442  0.000000     24.000000
  0.058327  0.019442  0.000000     24.000000
  0.077769  0.019442  0.000000     12.000000
  0.038884  0.038884  0.000000     12.000000
  0.058327  0.038884  0.000000     24.000000
  0.077769  0.038884  0.000000     12.000000
  0.058327  0.058327  0.000000     12.000000
  0.077769  0.058327  0.000000     12.000000
  0.077769  0.077769  0.000000      3.000000
  0.019442  0.019442  0.019442      8.000000
  0.038884  0.019442  0.019442     24.000000
  0.058327  0.019442  0.019442     24.000000
  0.077769  0.019442  0.019442     12.000000
  0.038884  0.038884  0.019442     24.000000
  0.058327  0.038884  0.019442     48.000000
  0.077769  0.038884  0.019442     24.000000
  0.058327  0.058327  0.019442     24.000000
  0.077769  0.058327  0.019442     24.000000
  0.077769  0.077769  0.019442      6.000000
  0.038884  0.038884  0.038884      8.000000
  0.058327  0.038884  0.038884     24.000000
  0.077769  0.038884  0.038884     12.000000
  0.058327  0.058327  0.038884     24.000000
  0.077769  0.058327  0.038884     24.000000
  0.077769  0.077769  0.038884      6.000000
  0.058327  0.058327  0.058327      8.000000
  0.077769  0.058327  0.058327     12.000000
  0.077769  0.077769  0.058327      6.000000
  0.077769  0.077769  0.077769      1.000000

 Subroutine IBZKPT_HF returns following result:

 Found    512 k-points in 1st BZ
 the following    512 k-points will be used (e.g. in the exchange kernel)
 Following reciprocal coordinates:   # in IRBZ
  0.000000  0.000000  0.000000    0.00195312   1 t-inv F
  0.125000  0.000000  0.000000    0.00195312   2 t-inv F
  0.250000  0.000000  0.000000    0.00195312   3 t-inv F
  0.375000  0.000000  0.000000    0.00195312   4 t-inv F
  0.500000  0.000000  0.000000    0.00195312   5 t-inv F
  0.125000  0.125000  0.000000    0.00195312   6 t-inv F
  0.250000  0.125000  0.000000    0.00195312   7 t-inv F
  0.375000  0.125000  0.000000    0.00195312   8 t-inv F
  0.500000  0.125000  0.000000    0.00195312   9 t-inv F
  0.250000  0.250000  0.000000    0.00195312  10 t-inv F
  0.375000  0.250000  0.000000    0.00195312  11 t-inv F
  0.500000  0.250000  0.000000    0.00195312  12 t-inv F
  0.375000  0.375000  0.000000    0.00195312  13 t-inv F
  0.500000  0.375000  0.000000    0.00195312  14 t-inv F
  0.500000  0.500000  0.000000    0.00195312  15 t-inv F
  0.125000  0.125000  0.125000    0.00195312  16 t-inv F
  0.250000  0.125000  0.125000    0.00195312  17 t-inv F
  0.375000  0.125000  0.125000    0.00195312  18 t-inv F
  0.500000  0.125000  0.125000    0.00195312  19 t-inv F
  0.250000  0.250000  0.125000    0.00195312  20 t-inv F
  0.375000  0.250000  0.125000    0.00195312  21 t-inv F
  0.500000  0.250000  0.125000    0.00195312  22 t-inv F
  0.375000  0.375000  0.125000    0.00195312  23 t-inv F
  0.500000  0.375000  0.125000    0.00195312  24 t-inv F
  0.500000  0.500000  0.125000    0.00195312  25 t-inv F
  0.250000  0.250000  0.250000    0.00195312  26 t-inv F
  0.375000  0.250000  0.250000    0.00195312  27 t-inv F
  0.500000  0.250000  0.250000    0.00195312  28 t-inv F
  0.375000  0.375000  0.250000    0.00195312  29 t-inv F
  0.500000  0.375000  0.250000    0.00195312  30 t-inv F
  0.500000  0.500000  0.250000    0.00195312  31 t-inv F
  0.375000  0.375000  0.375000    0.00195312  32 t-inv F
  0.500000  0.375000  0.375000    0.00195312  33 t-inv F
  0.500000  0.500000  0.375000    0.00195312  34 t-inv F
  0.500000  0.500000  0.500000    0.00195312  35 t-inv F
 -0.125000 -0.000000  0.000000    0.00195312   2 t-inv F
  0.000000  0.125000  0.000000    0.00195312   2 t-inv F
  0.000000 -0.125000 -0.000000    0.00195312   2 t-inv F
  0.000000  0.000000  0.125000    0.00195312   2 t-inv F
 -0.000000  0.000000 -0.125000    0.00195312   2 t-inv F
 -0.250000 -0.000000  0.000000    0.00195312   3 t-inv F
  0.000000  0.250000  0.000000    0.00195312   3 t-inv F
  0.000000 -0.250000 -0.000000    0.00195312   3 t-inv F
  0.000000  0.000000  0.250000    0.00195312   3 t-inv F
[...]
     6.429300000  0.000000000  0.000000000     0.155537928 -0.000000000  0.000000000
     0.000000000  6.429300000  0.000000000     0.000000000  0.155537928  0.000000000
     0.000000000  0.000000000  6.429300000    -0.000000000 -0.000000000  0.155537928

  length of vectors

 k-points in units of 2pi/SCALE and weight: Automatic kpoint scheme
   0.00000000  0.00000000  0.00000000       0.002
   0.01944224 -0.00000000  0.00000000       0.012
   0.03888448 -0.00000000  0.00000000       0.012
   0.05832672 -0.00000000  0.00000000       0.012
   0.07776896 -0.00000000  0.00000000       0.006
   0.01944224  0.01944224  0.00000000       0.023
   0.03888448  0.01944224  0.00000000       0.047
   0.05832672  0.01944224  0.00000000       0.047
   0.07776896  0.01944224  0.00000000       0.023
   0.03888448  0.03888448  0.00000000       0.023
   0.05832672  0.03888448  0.00000000       0.047
   0.07776896  0.03888448  0.00000000       0.023
   0.05832672  0.05832672  0.00000000       0.023
   0.07776896  0.05832672  0.00000000       0.023
   0.07776896  0.07776896  0.00000000       0.006
   0.01944224  0.01944224  0.01944224       0.016
   0.03888448  0.01944224  0.01944224       0.047
   0.05832672  0.01944224  0.01944224       0.047
   0.07776896  0.01944224  0.01944224       0.023
   0.03888448  0.03888448  0.01944224       0.047
   0.05832672  0.03888448  0.01944224       0.094
   0.07776896  0.03888448  0.01944224       0.047
   0.05832672  0.05832672  0.01944224       0.047
   0.07776896  0.05832672  0.01944224       0.047
   0.07776896  0.07776896  0.01944224       0.012
   0.03888448  0.03888448  0.03888448       0.016
   0.05832672  0.03888448  0.03888448       0.047
   0.07776896  0.03888448  0.03888448       0.023
   0.05832672  0.05832672  0.03888448       0.047
   0.07776896  0.05832672  0.03888448       0.047
   0.07776896  0.07776896  0.03888448       0.012
   0.05832672  0.05832672  0.05832672       0.016
   0.07776896  0.05832672  0.05832672       0.023
   0.07776896  0.07776896  0.05832672       0.012
   0.07776896  0.07776896  0.07776896       0.002

 k-points in reciprocal lattice and weights: Automatic kpoint scheme
   0.00000000  0.00000000  0.00000000       0.002
   0.12500000  0.00000000  0.00000000       0.012
   0.25000000  0.00000000  0.00000000       0.012
   0.37500000  0.00000000  0.00000000       0.012
   0.50000000  0.00000000  0.00000000       0.006
   0.12500000  0.12500000  0.00000000       0.023
   0.25000000  0.12500000  0.00000000       0.047
   0.37500000  0.12500000  0.00000000       0.047
   0.50000000  0.12500000  0.00000000       0.023
   0.25000000  0.25000000  0.00000000       0.023
   0.37500000  0.25000000  0.00000000       0.047
   0.50000000  0.25000000  0.00000000       0.023
   0.37500000  0.37500000  0.00000000       0.023
   0.50000000  0.37500000  0.00000000       0.023
   0.50000000  0.50000000  0.00000000       0.006
   0.12500000  0.12500000  0.12500000       0.016
   0.25000000  0.12500000  0.12500000       0.047
   0.37500000  0.12500000  0.12500000       0.047
   0.50000000  0.12500000  0.12500000       0.023
   0.25000000  0.25000000  0.12500000       0.047
   0.37500000  0.25000000  0.12500000       0.094
   0.50000000  0.25000000  0.12500000       0.047
   0.37500000  0.37500000  0.12500000       0.047
   0.50000000  0.37500000  0.12500000       0.047
   0.50000000  0.50000000  0.12500000       0.012
   0.25000000  0.25000000  0.25000000       0.016
   0.37500000  0.25000000  0.25000000       0.047
   0.50000000  0.25000000  0.25000000       0.023
   0.37500000  0.37500000  0.25000000       0.047
   0.50000000  0.37500000  0.25000000       0.047
   0.50000000  0.50000000  0.25000000       0.012
   0.37500000  0.37500000  0.37500000       0.016
   0.50000000  0.37500000  0.37500000       0.023
   0.50000000  0.50000000  0.37500000       0.012
   0.50000000  0.50000000  0.50000000       0.002

 position of ions in fractional coordinates (direct lattice)
   0.00000000  0.00000000  0.00000000
   0.00000000  0.50000000  0.50000000
   0.50000000  0.00000000  0.50000000
   0.50000000  0.50000000  0.00000000

 position of ions in cartesian coordinates  (Angst):
   0.00000000  0.00000000  0.00000000
   0.00000000  3.21465000  3.21465000
   3.21465000  0.00000000  3.21465000
   3.21465000  3.21465000  0.00000000

 k-point     1 :   0.0000 0.0000 0.0000  plane waves:    2301
 k-point     2 :   0.1250 0.0000 0.0000  plane waves:    2237
 k-point     3 :   0.2500 0.0000 0.0000  plane waves:    2268
 k-point     4 :   0.3750 0.0000 0.0000  plane waves:    2264
 k-point     5 :   0.5000 0.0000 0.0000  plane waves:    2240
 k-point     6 :   0.1250 0.1250 0.0000  plane waves:    2253
 k-point     7 :   0.2500 0.1250 0.0000  plane waves:    2258
 k-point     8 :   0.3750 0.1250 0.0000  plane waves:    2254
 k-point     9 :   0.5000 0.1250 0.0000  plane waves:    2252
 k-point    10 :   0.2500 0.2500 0.0000  plane waves:    2266
 k-point    11 :   0.3750 0.2500 0.0000  plane waves:    2258
 k-point    12 :   0.5000 0.2500 0.0000  plane waves:    2244
 k-point    13 :   0.3750 0.3750 0.0000  plane waves:    2254
 k-point    14 :   0.5000 0.3750 0.0000  plane waves:    2252
 k-point    15 :   0.5000 0.5000 0.0000  plane waves:    2216
 k-point    16 :   0.1250 0.1250 0.1250  plane waves:    2247
 k-point    17 :   0.2500 0.1250 0.1250  plane waves:    2263
 k-point    18 :   0.3750 0.1250 0.1250  plane waves:    2257
 k-point    19 :   0.5000 0.1250 0.1250  plane waves:    2252
 k-point    20 :   0.2500 0.2500 0.1250  plane waves:    2258
 k-point    21 :   0.3750 0.2500 0.1250  plane waves:    2243
 k-point    22 :   0.5000 0.2500 0.1250  plane waves:    2256
 k-point    23 :   0.3750 0.3750 0.1250  plane waves:    2250
 k-point    24 :   0.5000 0.3750 0.1250  plane waves:    2256
 k-point    25 :   0.5000 0.5000 0.1250  plane waves:    2248
 k-point    26 :   0.2500 0.2500 0.2500  plane waves:    2256
 k-point    27 :   0.3750 0.2500 0.2500  plane waves:    2243
 k-point    28 :   0.5000 0.2500 0.2500  plane waves:    2248
 k-point    29 :   0.3750 0.3750 0.2500  plane waves:    2275
 k-point    30 :   0.5000 0.3750 0.2500  plane waves:    2272
 k-point    31 :   0.5000 0.5000 0.2500  plane waves:    2284
 k-point    32 :   0.3750 0.3750 0.3750  plane waves:    2284
 k-point    33 :   0.5000 0.3750 0.3750  plane waves:    2276
 k-point    34 :   0.5000 0.5000 0.3750  plane waves:    2280
 k-point    35 :   0.5000 0.5000 0.5000  plane waves:    2272

 maximum and minimum number of plane-waves per node :      2301     2216

 maximum number of plane-waves:      2301
 maximum index in each direction:
   IXMAX=    8   IYMAX=    8   IZMAX=    8
   IXMIN=   -8   IYMIN=   -8   IZMIN=   -8

 serial   3D FFT for wavefunctions
 parallel 3D FFT for charge:
    minimum data exchange during FFTs selected (reduces bandwidth)

 Broyden mixing: mesh for mixing (old mesh)
   NGX = 17   NGY = 17   NGZ = 17
  (NGX  = 48   NGY  = 48   NGZ  = 48)
  gives a total of   4913 points

 charge density for first step will be calculated from the start-wavefunctions

 Maximum index for augmentation-charges          169 (set IRDMAX)

 initial charge from wavefunction
 First call to EWALD:  gamma=   0.276
 Maximum number of real-space cells 3x 3x 3
 Maximum number of reciprocal cells 3x 3x 3

--------------------------------------- Ionic step        1  -------------------------------------------

--------------------------------------- Iteration      1(   1)  ---------------------------------------

 eigenvalue-minimisations  :  3648
 total energy-change (2. order) :-0.1887561E+00  (-0.3146834E-07)
 number of electron      31.9999238 magnetization
 augmentation part       -4.6725640 magnetization

 Broyden mixing:
  rms(total) = 0.26954E-04    rms(broyden)= 0.26922E-04
  rms(prec ) = 0.45169E-04
  weight for this iteration     100.00

 Free energy of the ion-electron system (eV)
  alpha Z        PSCENC =        46.25721931
  Ewald energy   TEWEN  =     -1314.40327266
  -Hartree energ DENC   =      -518.96008882
  -exchange      EXHF   =         0.00000000
  -V(xc)+E(xc)   XCENC  =        82.09042609
  PAW double counting   =      1640.71684289    -1642.11512822
  entropy T*S    EENTRO =        -0.00000000
  eigenvalues    EBANDS =      -320.64120230
  atomic energy  EATOM  =      2026.86644763
  Solvation  Ediel_sol  =         0.00000000
  free energy    TOTEN  =        -0.18875607 eV

  energy without entropy =       -0.18875607  energy(sigma->0) =       -0.18875607

--------------------------------------- Iteration      1(   2)  ---------------------------------------

 eigenvalue-minimisations  :  2784
 total energy-change (2. order) :-0.8001575E-07  (-0.7758511E-09)
 number of electron      31.9999238 magnetization
 augmentation part       -4.6725640 magnetization

 Free energy of the ion-electron system (eV)
  alpha Z        PSCENC =        46.25721931
  Ewald energy   TEWEN  =     -1314.40327266
  -Hartree energ DENC   =      -518.96092356
  -exchange      EXHF   =         0.00000000
  -V(xc)+E(xc)   XCENC  =        82.09045759
  PAW double counting   =      1640.73150438    -1642.12990093
  entropy T*S    EENTRO =        -0.00000000
  eigenvalues    EBANDS =      -320.64028792
  atomic energy  EATOM  =      2026.86644763
  Solvation  Ediel_sol  =         0.00000000
  free energy    TOTEN  =        -0.18875615 eV

  energy without entropy =       -0.18875615  energy(sigma->0) =       -0.18875615

 average (electrostatic) potential at core
  the test charge radii are     0.9700
  (the norm of the test charge is              1.0000)
       1 -83.6561       2 -83.6561       3 -83.6561       4 -83.6561

 E-fermi :  -6.0499     XC(G=0):  -5.3797     alpha+bet : -2.6691

 val. band max:       -6.3169197590   @ k =   0.0000   0.0000   0.0000
 cond. band min:       0.8491461714   @ k =   0.0000   0.0000   0.0000
 fundamental gap:      7.1660659304
 Fermi energy:        -6.0499471706

 k-point     1 :       0.0000    0.0000    0.0000
  band No.  band energies     occupation
      1     -20.4153      2.00000
      2     -20.3559      2.00000
      3     -20.3559      2.00000
      4     -20.3559      2.00000
      5      -6.8767      2.00000
      6      -6.8767      2.00000
      7      -6.8767      2.00000
      8      -6.5236      2.00000
      9      -6.5236      2.00000
     10      -6.5236      2.00000
     11      -6.5236      2.00000
     12      -6.5236      2.00000
     13      -6.5236      2.00000
     14      -6.3169      2.00000
     15      -6.3169      2.00000
     16      -6.3169      2.00000
     17       0.8491      0.00000
     18       3.3732      0.00000
     19       3.3732      0.00000
     20       3.3732      0.00000
     21       4.6382      0.00000
     22       4.6382      0.00000
     23       4.6382      0.00000
     24       5.7829      0.00000
     25       5.7829      0.00000
     26       5.7829      0.00000
     27       6.9205      0.00000
     28       6.9205      0.00000
     29       6.9205      0.00000
     30       8.8070      0.00000
     31       8.8070      0.00000
     32       9.1027      0.00000
     33       9.1027      0.00000
     34       9.1027      0.00000
     35       9.1027      0.00000
     36       9.1027      0.00000
     37       9.1027      0.00000
     38       9.8769      0.00000
     39      10.2135      0.00000
     40      10.2135      0.00000
     41      10.2135      0.00000
     42      10.3201      0.00000
     43      10.3201      0.00000
     44      10.3201      0.00000
     45      10.8131      0.00000
     46      10.8131      0.00000
     47      10.8131      0.00000
     48      10.8131      0.00000

[...]

 k-point    35 :       0.5000    0.5000    0.5000
  band No.  band energies     occupation
      1     -20.3704      2.00000
      2     -20.3704      2.00000
      3     -20.3704      2.00000
      4     -20.3704      2.00000
      5      -6.9274      2.00000
      6      -6.9274      2.00000
      7      -6.9274      2.00000
      8      -6.9274      2.00000
      9      -6.3892      2.00000
     10      -6.3892      2.00000
     11      -6.3892      2.00000
     12      -6.3892      2.00000
     13      -6.3892      2.00000
     14      -6.3892      2.00000
     15      -6.3892      2.00000
     16      -6.3892      2.00000
     17       3.1843      0.00000
     18       3.1843      0.00000
     19       3.1843      0.00000
     20       3.1843      0.00000
     21       4.7066      0.00000
     22       4.7066      0.00000
     23       4.7066      0.00000
     24       4.7066      0.00000
     25       6.6044      0.00000
     26       6.6044      0.00000
     27       6.6044      0.00000
     28       6.6044      0.00000
     29       6.6044      0.00000
     30       6.6044      0.00000
     31       6.6044      0.00000
     32       6.6044      0.00000
     33       9.5007      0.00000
     34       9.5007      0.00000
     35       9.5007      0.00000
     36       9.5007      0.00000
     37      10.2939      0.00000
     38      10.2939      0.00000
     39      10.2939      0.00000
     40      10.2939      0.00000
     41      10.2939      0.00000
     42      10.2939      0.00000
     43      10.2939      0.00000
     44      10.2939      0.00000
     45      10.5624      0.00000
     46      10.5624      0.00000
     47      10.5624      0.00000
     48      10.5624      0.00000

 soft charge-density along one line, spin component           1
         0         1         2         3         4         5         6         7         8         9
 total charge-density along one line

------------------------ aborting loop because EDIFF is reached ----------------------------------------

  FORCE on cell =-STRESS in cart. coord.  units (eV):
  Direction    XX          YY          ZZ          XY          YZ          ZX
  Alpha Z    46.25722    46.25722    46.25722
  Ewald    -438.13462  -438.13462  -438.13462    -0.00000     0.00000     0.00000
  Hartree   172.98726   172.98726   172.98726    -0.00000    -0.00000    -0.00000
  E(xc)    -116.62273  -116.62273  -116.62273     0.00000    -0.00000    -0.00000
  Local    -290.34402  -290.34402  -290.34402     0.00000     0.00000    -0.00000
  n-local   239.21695   239.32548   239.37543    -0.02919    -0.02507    -0.01669
  augment   -94.02089   -94.02089   -94.02089     0.00000     0.00000     0.00000
  Kinetic   479.96319   480.60632   480.90176    -0.16412    -0.15948    -0.09975
  Fock        0.00000     0.00000     0.00000     0.00000     0.00000     0.00000
  Total      -0.08142    -0.08142    -0.08142    -0.00000    -0.00000    -0.00000
  in kB      -0.49083    -0.49083    -0.49083    -0.00000    -0.00000    -0.00000

 VOLUME and BASIS-vectors are now :
  energy-cutoff  :      240.93
  volume of cell :      265.76
      direct lattice vectors                 reciprocal lattice vectors
     6.429300000  0.000000000  0.000000000     0.155537928 -0.000000000  0.000000000
     0.000000000  6.429300000  0.000000000     0.000000000  0.155537928  0.000000000
     0.000000000  0.000000000  6.429300000    -0.000000000 -0.000000000  0.155537928

  length of vectors
     6.429300000  6.429300000  6.429300000     0.155537928  0.155537928  0.155537928

 FORCES acting on ions
    electron-ion (+dipol)            ewald-force                    non-local-force                 convergence-correction
   0.152E-14 -.206E-14 0.111E-14   -.511E-15 0.944E-15 0.361E-15   -.345E-25 -.280E-25 -.156E-25   -.107E-14 -.112E-14 0.332E-14
   0.207E-14 -.703E-14 -.474E-14   -.855E-15 0.120E-14 0.736E-15   0.275E-25 -.561E-25 0.489E-25   -.918E-15 -.380E-16 0.355E-14
   -.404E-14 -.861E-15 -.130E-11   0.592E-15 -.785E-15 0.711E-15   -.445E-25 -.988E-25 -.497E-25   0.359E-14 0.154E-14 0.347E-14
   -.673E-14 -.971E-12 -.112E-11   0.248E-15 -.525E-15 -.268E-14   -.465E-25 0.209E-25 -.292E-26   0.262E-14 0.216E-14 0.520E-15
   -.717E-14 -.980E-12 -.243E-11   -.526E-15 0.839E-15 -.871E-15   -.980E-25 -.162E-24 -.194E-25   0.422E-14 0.254E-14 0.109E-13

 POSITION                                       TOTAL-FORCE (eV/Angst)
      0.00000      0.00000      0.00000        -0.000000     -0.000000      0.000000
      0.00000      3.21465      3.21465         0.000000      0.000000     -0.000000
      3.21465      0.00000      3.21465         0.000000     -0.000000     -0.000000
      3.21465      3.21465      0.00000        -0.000000      0.000000      0.000000
    total drift:                               -0.000000     -0.000000     -0.000000

  FREE ENERGIE OF THE ION-ELECTRON SYSTEM (eV)
  free  energy   TOTEN  =        -0.18875615 eV

  energy  without entropy=       -0.18875615  energy(sigma->0) =       -0.18875615

 writing wavefunctions