 vasp.6.4.3 19Mar24 (build Jun 26 2024 13:02:28) complex

 executed on             LinuxIFC date 2025.08.08  19:49:58

 INCAR:
   ENCUT = 299.3679
   IBRION = -1
   ISMEAR = 0
   ISYM = 2
   LCHARG = True
   LSORBIT = True
   LWAVE = True
   SAXIS = 0 0 1
   SIGMA = 0.05
   SYSTEM = Pt

 POTCAR:  PAW_PBE Pt 04Feb2005
|           W    W    AA    RRRRR   N    N  II  N    N   GGGG   !!!           |
|           W    W   A  A   R    R  NN   N  II  NN   N  G    G  !!!           |
|           W    W  A    A  R    R  N N  N  II  N N  N  G       !!!           |
|           W WW W  AAAAAA  RRRRR   N  N N  II  N  N N  G  GGG   !            |
|           WW  WW  A    A  R   R   N   NN  II  N   NN  G    G                |
|           W    W  A    A  R    R  N    N  II  N    N   GGGG   !!!           |
|     You use a magnetic or noncollinear calculation, but did not specify     |
|     the initial magnetic moment with the MAGMOM tag. Note that a            |
|     default of 1 will be used for all atoms. This ferromagnetic setup       |
|     may break the symmetry of the crystal, in particular it may rule        |
|     out finding an antiferromagnetic solution. Thence, we recommend         |
|     setting the initial magnetic moment manually or verifying carefully     |
|     that this magnetic setup is desired.                                    |

 POTCAR:  PAW_PBE Pt 04Feb2005
   VRHFIN =Pt: s1d9

   TITEL  = PAW_PBE Pt 04Feb2005
   POMASS =  195.080; ZVAL   =   10.000    mass and valenz
   ENMAX  =  230.283; ENMIN  =  172.712 eV

PAW_PBE Pt 04Feb2005                    :

 POSCAR: Pt4
  positions in direct lattice

 exchange-correlation table for PE
   RHO(1)=    0.500       N(1)  =     2000
   RHO(2)=  100.500       N(2)  =     4000

 ion  position               nearest neighbor table
   1  0.000  0.000  0.000-   2 2.81   3 2.81   2 2.81   3 2.81   2 2.81   4 2.81   2 2.81   3 2.81
                             4 2.81   3 2.81   4 2.81   4 2.81
   2  0.000  0.500  0.500-   1 2.81   4 2.81   1 2.81   4 2.81   1 2.81   3 2.81   1 2.81   3 2.81
                             4 2.81   4 2.81   3 2.81   3 2.81
   3  0.500  0.000  0.500-   1 2.81   4 2.81   1 2.81   4 2.81   2 2.81   4 2.81   4 2.81   1 2.81
                             2 2.81   1 2.81   2 2.81   2 2.81
   4  0.500  0.500  0.000-   2 2.81   3 2.81   2 2.81   3 2.81   1 2.81   3 2.81   3 2.81   1 2.81
                             2 2.81   2 2.81   1 2.81   1 2.81

  LATTYP: Found a simple cubic cell.
 ALAT       =     3.9767500000

  Lattice vectors:

 A1 = (   3.9767500000,   0.0000000000,   0.0000000000)
 A2 = (   0.0000000000,   3.9767500000,   0.0000000000)
 A3 = (   0.0000000000,   0.0000000000,   3.9767500000)

Analysis of symmetry for initial positions (statically):
 Subroutine PRICEL returns following result:

  LATTYP: Found a face centered cubic cell.
 ALAT       =     3.9767500000

[...]

   4 primitive cells build up your supercell.

 Routine SETGRP: Setting up the symmetry group for a
 simple cubic supercell.

 Subroutine GETGRP returns: Found 48 space group operations
 (whereof 48 operations were pure point group operations)
 out of a pool of 48 trial point group operations.

The static configuration has the point symmetry O_h .

Analysis of symmetry for dynamics (positions and initial velocities):
 Subroutine PRICEL returns following result:

[...]

The dynamic configuration has the point symmetry O_h .

Analysis of structural, dynamic, and magnetic symmetry:
 Subroutine PRICEL returns following result:

  LATTYP: Found a face centered cubic cell.
 ALAT       =     3.9767500000

  Lattice vectors:

 A1 = (   1.9883750000,  -1.9883750000,   0.0000000000)
 A2 = (   1.9883750000,   0.0000000000,   1.9883750000)
 A3 = (   0.0000000000,  -1.9883750000,   1.9883750000)

   4 primitive cells build up your supercell.

 Routine SETGRP: Setting up the symmetry group for a
 simple cubic supercell.

 Subroutine GETGRP returns: Found  6 space group operations
 (whereof  6 operations were pure point group operations)
 out of a pool of 48 trial point group operations.

The overall configuration has the point symmetry S_6 .

 Subroutine INISYM returns: Found  6 space group operations
 (whereof  6 operations are pure point group operations),
 and found     4 'primitive' translations

                                     Primitive cell

  volume of cell :      15.7226

  direct lattice vectors                    reciprocal lattice vectors
     1.988375000 -1.988375000  0.000000000     0.251461621 -0.251461621 -0.251461621
     1.988375000  0.000000000  1.988375000     0.251461621  0.251461621  0.251461621
     0.000000000 -1.988375000  1.988375000    -0.251461621 -0.251461621  0.251461621

  length of vectors
     2.811986892  2.811986892  2.811986892     0.435544303  0.435544303  0.435544303

  position of ions in fractional coordinates (direct lattice)
     0.000000000  0.000000000  0.000000000

  ion indices of the primitive-cell ions
   primitive index   ion index
                 1           1

 KPOINTS: Automatic kpoint scheme

Automatic generation of k-mesh.
 Grid dimensions read from file:
 generate k-points for:   12   12   12

 Generating k-lattice:

  Cartesian coordinates                     Fractional coordinates (reciprocal lattice)
     0.020955135 -0.000000000  0.000000000     0.083333333  0.000000000  0.000000000
     0.000000000  0.020955135  0.000000000     0.000000000  0.083333333  0.000000000
    -0.000000000 -0.000000000  0.020955135     0.000000000 -0.000000000  0.083333333

  Length of vectors
     0.020955135  0.020955135  0.020955135

  Shift w.r.t. Gamma in fractional coordinates (k-lattice)
     0.000000000  0.000000000  0.000000000

 Subroutine IBZKPT returns following result:

 Found    294 irreducible k-points:

 Following reciprocal coordinates:
            Coordinates               Weight
  0.000000  0.000000  0.000000      1.000000
  0.083333 -0.000000  0.000000      6.000000
  0.166667  0.000000  0.000000      6.000000
  0.250000  0.000000  0.000000      6.000000
  0.333333  0.000000  0.000000      6.000000
  0.416667 -0.000000  0.000000      6.000000
  0.500000  0.000000  0.000000      3.000000
  0.083333  0.083333  0.000000      6.000000
 -0.083333  0.083333  0.000000      6.000000
  0.166667  0.083333  0.000000      6.000000
 -0.083333  0.166667  0.000000      6.000000
 -0.000000  0.083333  0.166667      6.000000
 -0.000000 -0.166667  0.083333      6.000000
  0.250000  0.083333  0.000000      6.000000
 -0.083333  0.250000  0.000000      6.000000
 -0.000000  0.083333  0.250000      6.000000
 -0.000000 -0.250000  0.083333      6.000000
  0.333333  0.083333  0.000000      6.000000
 -0.083333  0.333333  0.000000      6.000000
  0.000000  0.083333  0.333333      6.000000
 -0.000000 -0.333333  0.083333      6.000000
  0.416667  0.083333  0.000000      6.000000
 -0.083333  0.416667  0.000000      6.000000
 -0.000000  0.083333  0.416667      6.000000
 -0.000000 -0.416667  0.083333      6.000000
  0.500000  0.083333  0.000000      6.000000
 -0.083333  0.500000  0.000000      6.000000
  0.166667  0.166667  0.000000      6.000000
 -0.166667  0.166667  0.000000      6.000000
  0.250000  0.166667  0.000000      6.000000
 -0.166667  0.250000  0.000000      6.000000
 -0.000000  0.166667  0.250000      6.000000
 -0.000000 -0.250000  0.166667      6.000000
  0.333333  0.166667  0.000000      6.000000
 -0.166667  0.333333  0.000000      6.000000
  0.000000  0.166667  0.333333      6.000000
 -0.000000 -0.333333  0.166667      6.000000
  0.416667  0.166667  0.000000      6.000000
 -0.166667  0.416667  0.000000      6.000000
 -0.000000  0.166667  0.416667      6.000000
 -0.000000 -0.416667  0.166667      6.000000
  0.500000  0.166667  0.000000      6.000000
 -0.166667  0.500000  0.000000      6.000000
  0.250000  0.250000  0.000000      6.000000
 -0.250000  0.250000  0.000000      6.000000
  0.333333  0.250000  0.000000      6.000000
 -0.250000  0.333333  0.000000      6.000000
  0.000000  0.250000  0.333333      6.000000
 -0.000000 -0.333333  0.250000      6.000000
  0.416667  0.250000  0.000000      6.000000
 -0.250000  0.416667  0.000000      6.000000
 -0.000000  0.250000  0.416667      6.000000
 -0.000000 -0.416667  0.250000      6.000000
  0.500000  0.250000  0.000000      6.000000
 -0.250000  0.500000  0.000000      6.000000
  0.333333  0.333333  0.000000      6.000000
 -0.333333  0.333333  0.000000      6.000000
  0.416667  0.333333  0.000000      6.000000
 -0.333333  0.416667  0.000000      6.000000
 -0.000000  0.333333  0.416667      6.000000
[...]
  0.416667  0.416667  0.333333      6.000000
 -0.416667  0.416667  0.333333      6.000000
 -0.416667  0.333333  0.416667      6.000000
 -0.333333  0.416667  0.416667      6.000000
  0.500000  0.416667  0.333333      6.000000
 -0.416667  0.500000  0.333333      6.000000
  0.500000  0.333333  0.416667      6.000000
  0.500000 -0.416667  0.333333      6.000000
  0.500000  0.500000  0.333333      6.000000
  0.416667  0.416667  0.416667      2.000000
 -0.416667  0.416667  0.416667      6.000000
  0.500000  0.416667  0.416667      6.000000
 -0.416667  0.500000  0.416667      6.000000
  0.500000  0.500000  0.416667      6.000000
  0.500000  0.500000  0.500000      1.000000

 Following cartesian coordinates:
            Coordinates               Weight
  0.000000  0.000000  0.000000      1.000000
  0.020955 -0.000000  0.000000      6.000000
  0.041910 -0.000000  0.000000      6.000000
  0.062865 -0.000000  0.000000      6.000000
  0.083821 -0.000000  0.000000      6.000000
  0.104776 -0.000000  0.000000      6.000000
  0.125731 -0.000000  0.000000      3.000000
  0.020955  0.020955  0.000000      6.000000
 -0.020955  0.020955  0.000000      6.000000
  0.041910  0.020955  0.000000      6.000000
 -0.020955  0.041910  0.000000      6.000000
 -0.000000  0.020955  0.041910      6.000000
 -0.000000 -0.041910  0.020955      6.000000
  0.062865  0.020955  0.000000      6.000000
 -0.020955  0.062865  0.000000      6.000000
 -0.000000  0.020955  0.062865      6.000000
 -0.000000 -0.062865  0.020955      6.000000
  0.083821  0.020955  0.000000      6.000000
 -0.020955  0.083821  0.000000      6.000000
 -0.000000  0.020955  0.083821      6.000000
 -0.000000 -0.083821  0.020955      6.000000
  0.104776  0.020955  0.000000      6.000000
 -0.020955  0.104776  0.000000      6.000000
 -0.000000  0.020955  0.104776      6.000000
 -0.000000 -0.104776  0.020955      6.000000
  0.125731  0.020955  0.000000      6.000000
 -0.020955  0.125731  0.000000      6.000000
  0.041910  0.041910  0.000000      6.000000
 -0.041910  0.041910  0.000000      6.000000
  0.062865  0.041910  0.000000      6.000000
 -0.041910  0.062865  0.000000      6.000000
 -0.000000  0.041910  0.062865      6.000000
 -0.000000 -0.062865  0.041910      6.000000
  0.083821  0.041910  0.000000      6.000000
 -0.041910  0.083821  0.000000      6.000000
 -0.000000  0.041910  0.083821      6.000000
 -0.000000 -0.083821  0.041910      6.000000
  0.104776  0.041910  0.000000      6.000000
 -0.041910  0.104776  0.000000      6.000000
 -0.000000  0.041910  0.104776      6.000000
 -0.000000 -0.104776  0.041910      6.000000
[...]
 k-point    48 :   0.0000 0.2500 0.3333  plane waves:    1478
 k-point    49 :  -0.0000-0.3333 0.2500  plane waves:    1478
 k-point    50 :   0.4167 0.2500 0.0000  plane waves:    1478
 k-point    51 :  -0.2500 0.4167 0.0000  plane waves:    1478
 k-point    52 :  -0.0000 0.2500 0.4167  plane waves:    1478
 k-point    53 :  -0.0000-0.4167 0.2500  plane waves:    1478
 k-point    54 :   0.5000 0.2500 0.0000  plane waves:    1480
 k-point    55 :  -0.2500 0.5000 0.0000  plane waves:    1480
 k-point    56 :   0.3333 0.3333 0.0000  plane waves:    1496
 k-point    57 :  -0.3333 0.3333 0.0000  plane waves:    1496
 k-point    58 :   0.4167 0.3333 0.0000  plane waves:    1480
 k-point    59 :  -0.3333 0.4167 0.0000  plane waves:    1480
 k-point    60 :  -0.0000 0.3333 0.4167  plane waves:    1480
[...]
 k-point   280 :   0.4167 0.4167 0.3333  plane waves:    1460
 k-point   281 :  -0.4167 0.4167 0.3333  plane waves:    1460
 k-point   282 :  -0.4167 0.3333 0.4167  plane waves:    1460
 k-point   283 :  -0.3333 0.4167 0.4167  plane waves:    1460
 k-point   284 :   0.5000 0.4167 0.3333  plane waves:    1452
 k-point   285 :  -0.4167 0.5000 0.3333  plane waves:    1452
 k-point   286 :   0.5000 0.3333 0.4167  plane waves:    1452
 k-point   287 :   0.5000-0.4167 0.3333  plane waves:    1452
 k-point   288 :   0.5000 0.5000 0.3333  plane waves:    1448
 k-point   289 :   0.4167 0.4167 0.4167  plane waves:    1422
 k-point   290 :  -0.4167 0.4167 0.4167  plane waves:    1422
 k-point   291 :   0.5000 0.4167 0.4167  plane waves:    1420
 k-point   292 :  -0.4167 0.5000 0.4167  plane waves:    1420
 k-point   293 :   0.5000 0.5000 0.4167  plane waves:    1432
 k-point   294 :   0.5000 0.5000 0.5000  plane waves:    1440

 maximum and minimum number of plane-waves per node :      1512     1420

 maximum number of plane-waves:      1512
 maximum index in each direction:
   IXMAX=    6   IYMAX=    6   IZMAX=    5
   IXMIN=   -6   IYMIN=   -6   IZMIN=   -6

 serial   3D FFT for wavefunctions
 parallel 3D FFT for charge:
    minimum data exchange during FFTs selected (reduces bandwidth)

 Broyden mixing: mesh for mixing (old mesh)
   NGX = 11   NGY = 11   NGZ = 11
  (NGX  = 36   NGY  = 36   NGZ  = 36)
  gives a total of   1331 points

 charge density for first step will be calculated from the start-wavefunctions

 Maximum index for augmentation-charges          373 (set IRDMAX)

 initial charge from wavefunction
 First call to EWALD:  gamma=   0.446
 Maximum number of real-space cells 3x 3x 3
 Maximum number of reciprocal cells 3x 3x 3

--------------------------------------- Ionic step        1  -------------------------------------------

--------------------------------------- Iteration      1(   1)  ---------------------------------------

 eigenvalue-minimisations  : 55632
 total energy-change (2. order) :-0.2598253E+02  (-0.2566937E-05)
 number of electron      39.9999897 magnetization       0.0862170      0.0862170      0.0862170
 augmentation part       12.3845790 magnetization       0.0454061      0.0454061      0.0454061

 Broyden mixing:
  rms(total) = 0.21914E-02    rms(broyden)= 0.21910E-02
  rms(prec ) = 0.21937E-02
  weight for this iteration     100.00

 Free energy of the ion-electron system (eV)
  alpha Z        PSCENC =       241.83825798
  Ewald energy   TEWEN  =     -3320.35148084
  -Hartree energ DENC   =      -259.45372181
  -exchange      EXHF   =         0.00000000
  -V(xc)+E(xc)   XCENC  =        13.00754799
  PAW double counting   =      3683.84662331    -3583.03753596
  entropy T*S    EENTRO =        -0.01133276
  eigenvalues    EBANDS =       281.87627828
  atomic energy  EATOM  =      2916.30283489
  Solvation  Ediel_sol  =         0.00000000
  free energy    TOTEN  =       -25.98252891 eV

  energy without entropy =      -25.97119615  energy(sigma->0) =      -25.97686253

--------------------------------------- Iteration      1(   2)  ---------------------------------------

 eigenvalue-minimisations  : 52656
 total energy-change (2. order) :-0.1075218E-04  (-0.2559134E-05)
 number of electron      39.9999897 magnetization       0.0862170      0.0862170      0.0862170
 augmentation part       12.3845790 magnetization       0.0454061      0.0454061      0.0454061

 Free energy of the ion-electron system (eV)
  alpha Z        PSCENC =       241.83825798
  Ewald energy   TEWEN  =     -3320.35148084
  -Hartree energ DENC   =      -259.45204485
  -exchange      EXHF   =         0.00000000
  -V(xc)+E(xc)   XCENC  =        13.00739600
  PAW double counting   =      3683.87184298    -3583.06257837
  entropy T*S    EENTRO =        -0.01135200
  eigenvalues    EBANDS =       281.87458454
  atomic energy  EATOM  =      2916.30283489
  Solvation  Ediel_sol  =         0.00000000
  free energy    TOTEN  =       -25.98253966 eV

  energy without entropy =      -25.97118766  energy(sigma->0) =      -25.97686366

 average (electrostatic) potential at core
  the test charge radii are     1.2059
  (the norm of the test charge is              1.0000)
       1 -63.5242       2 -63.5242       3 -63.5242       4 -63.5242

 E-fermi :  10.5446     XC(G=0): -13.2466     alpha+bet :-15.9361

 val. band max:       10.5441378430   @ k =  -0.2500   0.2500   0.3333
 cond. band min:      10.5462725813   @ k =  -0.1667   0.3333   0.4167
 fundamental gap:      0.0021347383
 Fermi energy:        10.5446310567

 k-point     1 :       0.0000    0.0000    0.0000
  band No.  band energies     occupation
      1       0.7208      1.00000
      2       0.7260      1.00000
      3       3.7971      1.00000
      4       3.7971      1.00000
      5       3.7971      1.00000
      6       3.8116      1.00000
      7       3.8116      1.00000
      8       3.8116      1.00000
      9       4.2082      1.00000
     10       4.2082      1.00000
     11       4.2082      1.00000
     12       4.2325      1.00000
     13       4.2325      1.00000
     14       4.2325      1.00000
     15       6.4665      1.00000
     16       6.4765      1.00000
     17       6.4835      1.00000
     18       6.4938      1.00000
     19       7.4592      1.00000
     20       7.4691      1.00000
     21       9.1363      1.00000
     22       9.1365      1.00000
     23       9.1579      1.00000
     24       9.1581      1.00000
     25      10.2804      1.00000
     26      10.2804      1.00000
     27      10.2804      1.00000
     28      10.2993      1.00000
     29      10.2993      1.00000
     30      10.2993      1.00000
     31      10.5690      0.24505
     32      10.5690      0.24505
     33      10.5690      0.24505
     34      10.5894      0.10269
     35      10.5894      0.10269
     36      10.5894      0.10269
     37      11.5192      0.00000
     38      11.5192      0.00000
     39      11.5192      0.00000
     40      11.5340      0.00000
     41      11.5340      0.00000
     42      11.5340      0.00000
     43      12.1599      0.00000
     44      12.1599      0.00000
     45      12.1599      0.00000
     46      12.1637      0.00000
     47      12.1637      0.00000
     48      12.1637      0.00000
     49      18.9356      0.00000
     50      18.9356      0.00000
     51      18.9356      0.00000
     52      18.9527      0.00000
     53      18.9527      0.00000
     54      18.9527      0.00000
     55      21.0860      0.00000
     56      21.0860      0.00000
     57      21.0860      0.00000
     58      21.0887      0.00000
     59      21.0887      0.00000
     60      21.0887      0.00000
[...]
     82      33.2495      0.00000
     83      33.2495      0.00000
     84      33.2610      0.00000
     85      33.2610      0.00000
     86      33.2610      0.00000
     87      35.1527      0.00000
     88      35.1544      0.00000
     89      38.8126      0.00000
     90      38.8126      0.00000
     91      38.8126      0.00000
     92      38.8242      0.00000
     93      38.8242      0.00000
     94      38.8242      0.00000
     95      40.6713      0.00000
     96      40.6787      0.00000

[...]

 k-point   294 :       0.5000    0.5000    0.5000
  band No.  band energies     occupation
      1       3.5320      1.00000
      2       3.5320      1.00000
      3       3.5320      1.00000
      4       3.5321      1.00000
      5       3.5503      1.00000
      6       3.5504      1.00000
      7       3.5504      1.00000
      8       3.5504      1.00000
      9       6.3176      1.00000
     10       6.3256      1.00000
     11       6.3256      1.00000
     12       6.3256      1.00000
     13       6.3339      1.00000
     14       6.3339      1.00000
     15       6.3339      1.00000
     16       6.3421      1.00000
     17       7.3191      1.00000
     18       7.3268      1.00000
     19       7.3268      1.00000
     20       7.3268      1.00000
     21       7.3349      1.00000
     22       7.3349      1.00000
     23       7.3349      1.00000
     24       7.3424      1.00000
     25      10.0771      1.00000
     26      10.0771      1.00000
     27      10.0771      1.00000
     28      10.0774      1.00000
     29      10.0790      1.00000
     30      10.0792      1.00000
     31      10.0792      1.00000
     32      10.0792      1.00000
     33      10.2097      1.00000
     34      10.2199      1.00000
     35      10.2199      1.00000
     36      10.2199      1.00000
     37      10.2302      1.00000
     38      10.2302      1.00000
     39      10.2302      1.00000
     40      10.2411      1.00000
     41      10.8545      0.00000
     42      10.8648      0.00000
     43      10.8648      0.00000
     44      10.8648      0.00000
     45      10.8747      0.00000
     46      10.8747      0.00000
     47      10.8747      0.00000
     48      10.8843      0.00000
     49      16.0579      0.00000
     50      16.0579      0.00000
     51      16.0579      0.00000
     52      16.0581      0.00000
     53      16.0809      0.00000
     54      16.0811      0.00000
     55      16.0811      0.00000
     56      16.0811      0.00000
     57      24.7668      0.00000
     58      24.7668      0.00000
     59      24.7668      0.00000
     60      24.7669      0.00000
[...]
     82      37.9038      0.00000
     83      37.9038      0.00000
     84      37.9038      0.00000
     85      37.9061      0.00000
     86      37.9061      0.00000
     87      37.9061      0.00000
     88      37.9082      0.00000
     89      38.4530      0.00000
     90      38.4553      0.00000
     91      38.4553      0.00000
     92      38.4553      0.00000
     93      38.4574      0.00000
     94      38.4574      0.00000
     95      38.4574      0.00000
     96      38.4597      0.00000

 soft charge-density along one line, spin component           1
         0         1         2         3         4         5         6         7         8         9
 total charge-density along one line

[...]

 soft charge-density along one line, spin component           4
         0         1         2         3         4         5         6         7         8         9
 total charge-density along one line

------------------------ aborting loop because EDIFF is reached ----------------------------------------

  FORCE on cell =-STRESS in cart. coord.  units (eV):
  Direction    XX          YY          ZZ          XY          YZ          ZX
  Alpha Z   241.83826   241.83826   241.83826
  Ewald   -1106.78431 -1106.78431 -1106.78431    -0.00000     0.00000     0.00000
  Hartree    86.48377    86.48377    86.48377    -0.00006    -0.00006    -0.00006
  E(xc)    -177.85395  -177.85395  -177.85395     0.00000     0.00000     0.00000
  Local     143.05644   143.05644   143.05644     0.00023     0.00023     0.00023
  n-local    22.81832    19.54976    20.23075    -1.02330     5.32825    -4.30517
  augment   210.33000   210.33000   210.33000    -0.00004    -0.00004    -0.00004
  Kinetic   583.02289   581.70435   579.73228    -0.22886    -0.02985     0.25846
  Fock        0.00000     0.00000     0.00000     0.00000     0.00000     0.00000
  Total      -0.57702    -0.57702    -0.57702    -0.00002    -0.00002    -0.00002
  in kB     -14.69997   -14.69997   -14.69997    -0.00051    -0.00051    -0.00051

 VOLUME and BASIS-vectors are now :
  energy-cutoff  :      299.37
  volume of cell :       62.89
      direct lattice vectors                 reciprocal lattice vectors
     3.976750000  0.000000000  0.000000000     0.251461621 -0.000000000  0.000000000
     0.000000000  3.976750000  0.000000000     0.000000000  0.251461621  0.000000000
     0.000000000  0.000000000  3.976750000    -0.000000000 -0.000000000  0.251461621

  length of vectors
     3.976750000  3.976750000  3.976750000     0.251461621  0.251461621  0.251461621

 FORCES acting on ions
    electron-ion (+dipol)            ewald-force                    non-local-force                 convergence-correction
   -.169E-13 -.155E-13 -.131E-13   0.872E-14 0.220E-14 0.365E-14   -.136E-19 0.267E-19 0.316E-20   0.148E-14 0.406E-14 -.326E-14
   -.170E-13 0.155E-12 0.157E-12   0.960E-14 -.562E-14 0.449E-14   0.302E-19 -.843E-20 0.208E-19   0.338E-14 0.765E-14 0.963E-15
   0.153E-12 -.935E-14 0.158E-12   -.847E-14 0.567E-14 0.434E-14   0.141E-19 0.128E-18 -.530E-19   -.462E-14 0.279E-14 0.121E-14
   0.154E-12 0.156E-12 -.105E-13   -.758E-14 -.215E-14 -.102E-13   0.370E-19 0.599E-20 0.180E-19   -.308E-14 0.487E-14 -.287E-14
   0.272E-12 0.287E-12 0.292E-12   0.227E-14 0.101E-15 0.229E-14   0.678E-19 0.152E-18 -.111E-19   -.284E-14 0.194E-13 -.396E-14

 POSITION                                       TOTAL-FORCE (eV/Angst)
      0.00000      0.00000      0.00000         0.000000      0.000000     -0.000000
      0.00000      1.98838      1.98838        -0.000000     -0.000000      0.000000
      1.98838      0.00000      1.98838         0.000000      0.000000      0.000000
      1.98838      1.98838      0.00000        -0.000000     -0.000000      0.000000
    total drift:                                0.000000      0.000000      0.000000

  FREE ENERGIE OF THE ION-ELECTRON SYSTEM (eV)
  free  energy   TOTEN  =       -25.98253966 eV

  energy  without entropy=      -25.97118766  energy(sigma->0) =      -25.97686366

 writing wavefunctions

 Spin-Orbit-Coupling matrix elements

 Ion:    1  E_soc:     -0.7917552
 l=   1
     0.0000000    -0.0315445    -0.0315445
    -0.0315445     0.0000000    -0.0315445
    -0.0315445    -0.0315445     0.0000000
 l=   2
     0.0000000    -0.0176121     0.0000000    -0.0176121    -0.0828026
    -0.0176121     0.0000000    -0.0621019    -0.0176121    -0.0207006
     0.0000000    -0.0621019     0.0000000    -0.0621019     0.0000000
    -0.0176121    -0.0176121    -0.0621019     0.0000000    -0.0207006
    -0.0828026    -0.0207006     0.0000000    -0.0207006     0.0000000
 l=   3
     0.0000000     0.0000000     0.0000000     0.0000000     0.0000000     0.0000000     0.0000000
     0.0000000     0.0000000     0.0000000     0.0000000     0.0000000     0.0000000     0.0000000
     0.0000000     0.0000000     0.0000000     0.0000000     0.0000000     0.0000000     0.0000000
     0.0000000     0.0000000     0.0000000     0.0000000     0.0000000     0.0000000     0.0000000
     0.0000000     0.0000000     0.0000000     0.0000000     0.0000000     0.0000000     0.0000000
     0.0000000     0.0000000     0.0000000     0.0000000     0.0000000     0.0000000     0.0000000
     0.0000000     0.0000000     0.0000000     0.0000000     0.0000000     0.0000000     0.0000000

[...]

 Ion:    4  E_soc:     -0.7917552
 l=   1
     0.0000000    -0.0315445    -0.0315445
    -0.0315445     0.0000000    -0.0315445
    -0.0315445    -0.0315445     0.0000000
 l=   2
     0.0000000    -0.0176121     0.0000000    -0.0176121    -0.0828026
    -0.0176121     0.0000000    -0.0621019    -0.0176121    -0.0207006
     0.0000000    -0.0621019     0.0000000    -0.0621019     0.0000000
    -0.0176121    -0.0176121    -0.0621019     0.0000000    -0.0207006
    -0.0828026    -0.0207006     0.0000000    -0.0207006     0.0000000
 l=   3
     0.0000000     0.0000000     0.0000000     0.0000000     0.0000000     0.0000000     0.0000000
     0.0000000     0.0000000     0.0000000     0.0000000     0.0000000     0.0000000     0.0000000
     0.0000000     0.0000000     0.0000000     0.0000000     0.0000000     0.0000000     0.0000000
     0.0000000     0.0000000     0.0000000     0.0000000     0.0000000     0.0000000     0.0000000
     0.0000000     0.0000000     0.0000000     0.0000000     0.0000000     0.0000000     0.0000000
     0.0000000     0.0000000     0.0000000     0.0000000     0.0000000     0.0000000     0.0000000
     0.0000000     0.0000000     0.0000000     0.0000000     0.0000000     0.0000000     0.0000000