 vasp.6.4.3 19Mar24 (build Jun 26 2024 13:02:28) complex

 executed on             LinuxIFC date 2025.08.08  18:26:50

 INCAR:
   ENCUT = 359.73990000000003
   IBRION = -1
   ISMEAR = 0
   ISYM = 2
   LCHARG = True
   LWAVE = True
   SIGMA = 0.05
   SYSTEM = Zn

 POTCAR:  PAW_PBE Zn 06Sep2000
|           W    W    AA    RRRRR   N    N  II  N    N   GGGG   !!!           |
|           W    W   A  A   R    R  NN   N  II  NN   N  G    G  !!!           |
|           W    W  A    A  R    R  N N  N  II  N N  N  G       !!!           |
|           W WW W  AAAAAA  RRRRR   N  N N  II  N  N N  G  GGG   !            |
|           WW  WW  A    A  R   R   N   NN  II  N   NN  G    G                |
|           W    W  A    A  R    R  N    N  II  N    N   GGGG   !!!           |
|     For optimal performance we recommend to set                             |
|       NCORE = 2 up to number-of-cores-per-socket                            |
|     This setting can greatly improve the performance of VASP for DFT.       |
|     The default, NCORE=1 might be grossly inefficient on modern             |
|     multi-core architectures or massively parallel machines. Do your        |
|     Unfortunately you need to use the default for GW and RPA                |
|     calculations (for HF NCORE is supported but not extensively tested      |
|     yet).                                                                   |

 POTCAR:  PAW_PBE Zn 06Sep2000
   VRHFIN =Zn: d10 p2

   TITEL  = PAW_PBE Zn 06Sep2000
   POMASS =   65.390; ZVAL   =   12.000    mass and valenz
   ENMAX  =  276.723; ENMIN  =  207.542 eV

PAW_PBE Zn 06Sep2000                    :

 POSCAR: Zn2
  positions in direct lattice

 exchange-correlation table for PE
   RHO(1)=    0.500       N(1)  =     2000
   RHO(2)=  100.500       N(2)  =     4000

 ion  position               nearest neighbor table
   1  0.000  0.000  0.000-   2 2.94   2 2.94   2 2.94   2 2.94   2 2.94   2 2.94
   2  0.333  0.333  0.500-   1 2.94   1 2.94   1 2.94   1 2.94   1 2.94   1 2.94

  LATTYP: Found a hexagonal cell.
 ALAT       =     2.6616900000
 C/A-ratio  =     1.8799972950

  Lattice vectors:

 A1 = (  -1.3308450000,  -2.3050911570,   0.0000000000)
 A2 = (   2.6616900000,   0.0000000000,   0.0000000000)
 A3 = (   0.0000000000,   0.0000000000,   5.0039700000)

Analysis of symmetry for initial positions (statically):
 Subroutine PRICEL returns:
 Original cell was already a primitive cell.

 Routine SETGRP: Setting up the symmetry group for a
 hexagonal supercell.

 Subroutine GETGRP returns: Found 24 space group operations
 (whereof 12 operations were pure point group operations)
 out of a pool of 24 trial point group operations.

The static configuration has the point symmetry D_3h.
 The point group associated with its full space group is D_6h.

Analysis of symmetry for dynamics (positions and initial velocities):
 Subroutine PRICEL returns:
 Original cell was already a primitive cell.

 Routine SETGRP: Setting up the symmetry group for a
 hexagonal supercell.

 Subroutine GETGRP returns: Found 24 space group operations
 (whereof 12 operations were pure point group operations)
 out of a pool of 24 trial point group operations.

The dynamic configuration has the point symmetry D_3h.
 The point group associated with its full space group is D_6h.

 Subroutine INISYM returns: Found 24 space group operations
 (whereof 12 operations are pure point group operations),
 and found     1 'primitive' translations

                                     Primitive cell

  volume of cell :      30.7015

  direct lattice vectors                    reciprocal lattice vectors
     2.661690000  0.000000000  0.000000000     0.375701152 -0.216911161  0.000000000
     1.330845000  2.305091157  0.000000000     0.000000000  0.433822323  0.000000000
     0.000000000  0.000000000  5.003970000    -0.000000000 -0.000000000  0.199841326

  length of vectors
     2.661690000  2.661690000  5.003970000     0.433822323  0.433822323  0.199841326

  position of ions in fractional coordinates (direct lattice)
     0.000000000  0.000000000  0.000000000
     0.333333333  0.333333333  0.500000000

  ion indices of the primitive-cell ions
   primitive index   ion index
                 1           1
                 2           2

 KPOINTS: Automatic kpoint scheme

Automatic generation of k-mesh.
 Grid dimensions read from file:
 generate k-points for:    8    8    8

 Generating k-lattice:

  Cartesian coordinates                     Fractional coordinates (reciprocal lattice)
     0.046962644 -0.027113895  0.000000000     0.125000000 -0.000000000  0.000000000
     0.000000000  0.054227790  0.000000000     0.000000000  0.125000000  0.000000000
    -0.000000000 -0.000000000  0.024980166     0.000000000 -0.000000000  0.125000000

  Length of vectors
     0.054227790  0.054227790  0.024980166

  Shift w.r.t. Gamma in fractional coordinates (k-lattice)
     0.000000000  0.000000000  0.000000000

 Subroutine IBZKPT returns following result:

 Found     50 irreducible k-points:

 Following reciprocal coordinates:
            Coordinates               Weight
  0.000000  0.000000  0.000000      1.000000
  0.125000 -0.000000  0.000000      6.000000
  0.250000 -0.000000  0.000000      6.000000
  0.375000  0.000000  0.000000      6.000000
  0.500000 -0.000000  0.000000      3.000000
  0.250000  0.125000  0.000000      6.000000
  0.375000  0.125000  0.000000     12.000000
  0.500000  0.125000  0.000000     12.000000
  0.500000  0.250000  0.000000      6.000000
 -0.375000  0.250000  0.000000      6.000000
 -0.000000  0.000000  0.125000      2.000000
  0.125000  0.000000  0.125000     12.000000
  0.250000  0.000000  0.125000     12.000000
  0.375000  0.000000  0.125000     12.000000
  0.500000  0.000000  0.125000      6.000000
  0.250000  0.125000  0.125000     12.000000
  0.375000  0.125000  0.125000     24.000000
  0.500000  0.125000  0.125000     24.000000
  0.500000  0.250000  0.125000     12.000000
 -0.375000  0.250000  0.125000     12.000000
 -0.000000  0.000000  0.250000      2.000000
  0.125000 -0.000000  0.250000     12.000000
  0.250000  0.000000  0.250000     12.000000
  0.375000  0.000000  0.250000     12.000000
  0.500000  0.000000  0.250000      6.000000
  0.250000  0.125000  0.250000     12.000000
  0.375000  0.125000  0.250000     24.000000
  0.500000  0.125000  0.250000     24.000000
  0.500000  0.250000  0.250000     12.000000
 -0.375000  0.250000  0.250000     12.000000
 -0.000000  0.000000  0.375000      2.000000
  0.125000 -0.000000  0.375000     12.000000
  0.250000  0.000000  0.375000     12.000000
  0.375000  0.000000  0.375000     12.000000
  0.500000  0.000000  0.375000      6.000000
  0.250000  0.125000  0.375000     12.000000
  0.375000  0.125000  0.375000     24.000000
  0.500000  0.125000  0.375000     24.000000
  0.500000  0.250000  0.375000     12.000000
 -0.375000  0.250000  0.375000     12.000000
 -0.000000  0.000000  0.500000      1.000000
  0.125000 -0.000000  0.500000      6.000000
  0.250000 -0.000000  0.500000      6.000000
  0.375000  0.000000  0.500000      6.000000
  0.500000  0.000000  0.500000      3.000000
  0.250000  0.125000  0.500000      6.000000
  0.375000  0.125000  0.500000     12.000000
  0.500000  0.125000  0.500000     12.000000
  0.500000  0.250000  0.500000      6.000000
 -0.375000  0.250000  0.500000      6.000000

 Following cartesian coordinates:
            Coordinates               Weight
  0.000000  0.000000  0.000000      1.000000
  0.046963 -0.027114  0.000000      6.000000
  0.093925 -0.054228  0.000000      6.000000
  0.140888 -0.081342  0.000000      6.000000
  0.187851 -0.108456  0.000000      3.000000
  0.093925 -0.000000  0.000000      6.000000
  0.140888 -0.027114  0.000000     12.000000
  0.187851 -0.054228  0.000000     12.000000
  0.187851 -0.000000  0.000000      6.000000
 -0.140888  0.189797  0.000000      6.000000
 -0.000000 -0.000000  0.024980      2.000000
  0.046963 -0.027114  0.024980     12.000000
  0.093925 -0.054228  0.024980     12.000000
  0.140888 -0.081342  0.024980     12.000000
  0.187851 -0.108456  0.024980      6.000000
  0.093925 -0.000000  0.024980     12.000000
  0.140888 -0.027114  0.024980     24.000000
  0.187851 -0.054228  0.024980     24.000000
  0.187851 -0.000000  0.024980     12.000000
 -0.140888  0.189797  0.024980     12.000000
 -0.000000 -0.000000  0.049960      2.000000
  0.046963 -0.027114  0.049960     12.000000
  0.093925 -0.054228  0.049960     12.000000
  0.140888 -0.081342  0.049960     12.000000
  0.187851 -0.108456  0.049960      6.000000
  0.093925 -0.000000  0.049960     12.000000
  0.140888 -0.027114  0.049960     24.000000
  0.187851 -0.054228  0.049960     24.000000
  0.187851 -0.000000  0.049960     12.000000
 -0.140888  0.189797  0.049960     12.000000
 -0.000000 -0.000000  0.074940      2.000000
  0.046963 -0.027114  0.074940     12.000000
  0.093925 -0.054228  0.074940     12.000000
  0.140888 -0.081342  0.074940     12.000000
  0.187851 -0.108456  0.074940      6.000000
  0.093925 -0.000000  0.074940     12.000000
  0.140888 -0.027114  0.074940     24.000000
  0.187851 -0.054228  0.074940     24.000000
  0.187851 -0.000000  0.074940     12.000000
 -0.140888  0.189797  0.074940     12.000000
 -0.000000 -0.000000  0.099921      1.000000
  0.046963 -0.027114  0.099921      6.000000
  0.093925 -0.054228  0.099921      6.000000
  0.140888 -0.081342  0.099921      6.000000
  0.187851 -0.108456  0.099921      3.000000
  0.093925 -0.000000  0.099921      6.000000
  0.140888 -0.027114  0.099921     12.000000
  0.187851 -0.054228  0.099921     12.000000
  0.187851 -0.000000  0.099921      6.000000
 -0.140888  0.189797  0.099921      6.000000

 Subroutine IBZKPT_HF returns following result:

 Found    512 k-points in 1st BZ
 the following    512 k-points will be used (e.g. in the exchange kernel)
 Following reciprocal coordinates:   # in IRBZ
  0.000000  0.000000  0.000000    0.00195312   1 t-inv F
  0.125000 -0.000000  0.000000    0.00195312   2 t-inv F
  0.250000 -0.000000  0.000000    0.00195312   3 t-inv F
  0.375000  0.000000  0.000000    0.00195312   4 t-inv F
  0.500000 -0.000000  0.000000    0.00195312   5 t-inv F
  0.250000  0.125000  0.000000    0.00195312   6 t-inv F
  0.375000  0.125000  0.000000    0.00195312   7 t-inv F
  0.500000  0.125000  0.000000    0.00195312   8 t-inv F
  0.500000  0.250000  0.000000    0.00195312   9 t-inv F
 -0.375000  0.250000  0.000000    0.00195312  10 t-inv F
 -0.000000  0.000000  0.125000    0.00195312  11 t-inv F
  0.125000  0.000000  0.125000    0.00195312  12 t-inv F
  0.250000  0.000000  0.125000    0.00195312  13 t-inv F
  0.375000  0.000000  0.125000    0.00195312  14 t-inv F
  0.500000  0.000000  0.125000    0.00195312  15 t-inv F
  0.250000  0.125000  0.125000    0.00195312  16 t-inv F
  0.375000  0.125000  0.125000    0.00195312  17 t-inv F
  0.500000  0.125000  0.125000    0.00195312  18 t-inv F
  0.500000  0.250000  0.125000    0.00195312  19 t-inv F
 -0.375000  0.250000  0.125000    0.00195312  20 t-inv F
 -0.000000  0.000000  0.250000    0.00195312  21 t-inv F
  0.125000 -0.000000  0.250000    0.00195312  22 t-inv F
[...]
  -0.14088793  0.18979727  0.04996033       0.023
  -0.00000000 -0.00000000  0.07494050       0.004
   0.04696264 -0.02711390  0.07494050       0.023
   0.09392529 -0.05422779  0.07494050       0.023
   0.14088793 -0.08134169  0.07494050       0.023
   0.18785058 -0.10845558  0.07494050       0.012
   0.09392529 -0.00000000  0.07494050       0.023
   0.14088793 -0.02711390  0.07494050       0.047
   0.18785058 -0.05422779  0.07494050       0.047
   0.18785058 -0.00000000  0.07494050       0.023
  -0.14088793  0.18979727  0.07494050       0.023
  -0.00000000 -0.00000000  0.09992066       0.002
   0.04696264 -0.02711390  0.09992066       0.012
   0.09392529 -0.05422779  0.09992066       0.012
   0.14088793 -0.08134169  0.09992066       0.012
   0.18785058 -0.10845558  0.09992066       0.006
   0.09392529 -0.00000000  0.09992066       0.012
   0.14088793 -0.02711390  0.09992066       0.023
   0.18785058 -0.05422779  0.09992066       0.023
   0.18785058 -0.00000000  0.09992066       0.012
  -0.14088793  0.18979727  0.09992066       0.012

 k-points in reciprocal lattice and weights: Automatic kpoint scheme
   0.00000000  0.00000000  0.00000000       0.002
   0.12500000 -0.00000000  0.00000000       0.012
   0.25000000 -0.00000000  0.00000000       0.012
   0.37500000  0.00000000  0.00000000       0.012
   0.50000000 -0.00000000  0.00000000       0.006
   0.25000000  0.12500000  0.00000000       0.012
   0.37500000  0.12500000  0.00000000       0.023
   0.50000000  0.12500000  0.00000000       0.023
   0.50000000  0.25000000  0.00000000       0.012
  -0.37500000  0.25000000  0.00000000       0.012
  -0.00000000  0.00000000  0.12500000       0.004
   0.12500000  0.00000000  0.12500000       0.023
   0.25000000  0.00000000  0.12500000       0.023
   0.37500000  0.00000000  0.12500000       0.023
   0.50000000  0.00000000  0.12500000       0.012
   0.25000000  0.12500000  0.12500000       0.023
   0.37500000  0.12500000  0.12500000       0.047
   0.50000000  0.12500000  0.12500000       0.047
   0.50000000  0.25000000  0.12500000       0.023
  -0.37500000  0.25000000  0.12500000       0.023
  -0.00000000  0.00000000  0.25000000       0.004
   0.12500000 -0.00000000  0.25000000       0.023
   0.25000000  0.00000000  0.25000000       0.023
   0.37500000  0.00000000  0.25000000       0.023
   0.50000000  0.00000000  0.25000000       0.012
   0.25000000  0.12500000  0.25000000       0.023
   0.37500000  0.12500000  0.25000000       0.047
   0.50000000  0.12500000  0.25000000       0.047
   0.50000000  0.25000000  0.25000000       0.023
  -0.37500000  0.25000000  0.25000000       0.023
  -0.00000000  0.00000000  0.37500000       0.004
   0.12500000 -0.00000000  0.37500000       0.023
   0.25000000  0.00000000  0.37500000       0.023
   0.37500000  0.00000000  0.37500000       0.023
   0.50000000  0.00000000  0.37500000       0.012
   0.25000000  0.12500000  0.37500000       0.023
   0.37500000  0.12500000  0.37500000       0.047
   0.50000000  0.12500000  0.37500000       0.047
   0.50000000  0.25000000  0.37500000       0.023
  -0.37500000  0.25000000  0.37500000       0.023
  -0.00000000  0.00000000  0.50000000       0.002
   0.12500000 -0.00000000  0.50000000       0.012
   0.25000000 -0.00000000  0.50000000       0.012
   0.37500000  0.00000000  0.50000000       0.012
   0.50000000  0.00000000  0.50000000       0.006
   0.25000000  0.12500000  0.50000000       0.012
   0.37500000  0.12500000  0.50000000       0.023
   0.50000000  0.12500000  0.50000000       0.023
   0.50000000  0.25000000  0.50000000       0.012
  -0.37500000  0.25000000  0.50000000       0.012

 position of ions in fractional coordinates (direct lattice)
   0.00000000  0.00000000  0.00000000
   0.33333333  0.33333333  0.50000000

 position of ions in cartesian coordinates  (Angst):
   0.00000000  0.00000000  0.00000000
   1.33084500  0.76836372  2.50198500

 k-point     1 :   0.0000 0.0000 0.0000  plane waves:     465
 k-point     2 :   0.1250-0.0000 0.0000  plane waves:     461
 k-point     3 :   0.2500-0.0000 0.0000  plane waves:     475
 k-point     4 :   0.3750 0.0000 0.0000  plane waves:     481
 k-point     5 :   0.5000-0.0000 0.0000  plane waves:     488
 k-point     6 :   0.2500 0.1250 0.0000  plane waves:     468
 k-point     7 :   0.3750 0.1250 0.0000  plane waves:     473
 k-point     8 :   0.5000 0.1250 0.0000  plane waves:     482
 k-point     9 :   0.5000 0.2500 0.0000  plane waves:     482
 k-point    10 :  -0.3750 0.2500 0.0000  plane waves:     480
 k-point    11 :  -0.0000 0.0000 0.1250  plane waves:     465
 k-point    12 :   0.1250 0.0000 0.1250  plane waves:     467
 k-point    13 :   0.2500 0.0000 0.1250  plane waves:     473
 k-point    14 :   0.3750 0.0000 0.1250  plane waves:     482
 k-point    15 :   0.5000 0.0000 0.1250  plane waves:     478
 k-point    16 :   0.2500 0.1250 0.1250  plane waves:     471
 k-point    17 :   0.3750 0.1250 0.1250  plane waves:     475
 k-point    18 :   0.5000 0.1250 0.1250  plane waves:     478
 k-point    19 :   0.5000 0.2500 0.1250  plane waves:     479
 k-point    20 :  -0.3750 0.2500 0.1250  plane waves:     482
 k-point    21 :  -0.0000 0.0000 0.2500  plane waves:     459
 k-point    22 :   0.1250-0.0000 0.2500  plane waves:     466
 k-point    23 :   0.2500 0.0000 0.2500  plane waves:     469
 k-point    24 :   0.3750 0.0000 0.2500  plane waves:     477
 k-point    25 :   0.5000 0.0000 0.2500  plane waves:     478
 k-point    26 :   0.2500 0.1250 0.2500  plane waves:     470
 k-point    27 :   0.3750 0.1250 0.2500  plane waves:     474
 k-point    28 :   0.5000 0.1250 0.2500  plane waves:     477
 k-point    29 :   0.5000 0.2500 0.2500  plane waves:     479
 k-point    30 :  -0.3750 0.2500 0.2500  plane waves:     479
 k-point    31 :  -0.0000 0.0000 0.3750  plane waves:     460
 k-point    32 :   0.1250-0.0000 0.3750  plane waves:     469
 k-point    33 :   0.2500 0.0000 0.3750  plane waves:     477
 k-point    34 :   0.3750 0.0000 0.3750  plane waves:     482
 k-point    35 :   0.5000 0.0000 0.3750  plane waves:     486
 k-point    36 :   0.2500 0.1250 0.3750  plane waves:     471
 k-point    37 :   0.3750 0.1250 0.3750  plane waves:     476
 k-point    38 :   0.5000 0.1250 0.3750  plane waves:     474
 k-point    39 :   0.5000 0.2500 0.3750  plane waves:     476
 k-point    40 :  -0.3750 0.2500 0.3750  plane waves:     477
 k-point    41 :  -0.0000 0.0000 0.5000  plane waves:     448
 k-point    42 :   0.1250-0.0000 0.5000  plane waves:     462
 k-point    43 :   0.2500-0.0000 0.5000  plane waves:     484
 k-point    44 :   0.3750 0.0000 0.5000  plane waves:     482
 k-point    45 :   0.5000 0.0000 0.5000  plane waves:     484
 k-point    46 :   0.2500 0.1250 0.5000  plane waves:     468
 k-point    47 :   0.3750 0.1250 0.5000  plane waves:     478
 k-point    48 :   0.5000 0.1250 0.5000  plane waves:     478
 k-point    49 :   0.5000 0.2500 0.5000  plane waves:     470
 k-point    50 :  -0.3750 0.2500 0.5000  plane waves:     472

 maximum and minimum number of plane-waves per node :       488      448

 maximum number of plane-waves:       488
 maximum index in each direction:
   IXMAX=    4   IYMAX=    4   IZMAX=    7
   IXMIN=   -4   IYMIN=   -4   IZMIN=   -8

 serial   3D FFT for wavefunctions
 parallel 3D FFT for charge:
    minimum data exchange during FFTs selected (reduces bandwidth)

 Broyden mixing: mesh for mixing (old mesh)
   NGX =  9   NGY =  9   NGZ = 15
  (NGX  = 24   NGY  = 24   NGZ  = 48)
  gives a total of   1215 points

 charge density for first step will be calculated from the start-wavefunctions

 Maximum index for augmentation-charges          251 (set IRDMAX)

 initial charge from wavefunction
 First call to EWALD:  gamma=   0.566
 Maximum number of real-space cells 4x 4x 2
 Maximum number of reciprocal cells 2x 2x 4

--------------------------------------- Ionic step        1  -------------------------------------------

--------------------------------------- Iteration      1(   1)  ---------------------------------------

 eigenvalue-minimisations  :  2448
 total energy-change (2. order) :-0.2171129E+01  (-0.1055204E-04)
 number of electron      23.9999958 magnetization
 augmentation part       15.9576403 magnetization

 Broyden mixing:
  rms(total) = 0.18351E-02    rms(broyden)= 0.18317E-02
  rms(prec ) = 0.27160E-02
  weight for this iteration     100.00

 Free energy of the ion-electron system (eV)
  alpha Z        PSCENC =       206.21415897
  Ewald energy   TEWEN  =     -2401.99486669
  -Hartree energ DENC   =      -967.56119435
  -exchange      EXHF   =         0.00000000
  -V(xc)+E(xc)   XCENC  =       113.41055123
  PAW double counting   =      3034.77558414    -3390.43761576
  entropy T*S    EENTRO =        -0.00191579
  eigenvalues    EBANDS =       -94.20276975
  atomic energy  EATOM  =      3497.62693919
  Solvation  Ediel_sol  =         0.00000000
  free energy    TOTEN  =        -2.17112881 eV

  energy without entropy =       -2.16921302  energy(sigma->0) =       -2.17017092

--------------------------------------- Iteration      1(   2)  ---------------------------------------

 eigenvalue-minimisations  :  2400
 total energy-change (2. order) : 0.7055242E-05  (-0.5171966E-05)
 number of electron      23.9999958 magnetization
 augmentation part       15.9576403 magnetization

 Free energy of the ion-electron system (eV)
  alpha Z        PSCENC =       206.21415897
  Ewald energy   TEWEN  =     -2401.99486669
  -Hartree energ DENC   =      -967.48310323
  -exchange      EXHF   =         0.00000000
  -V(xc)+E(xc)   XCENC  =       113.40678010
  PAW double counting   =      3034.72789926    -3390.34368456
  entropy T*S    EENTRO =        -0.00191776
  eigenvalues    EBANDS =       -94.32332704
  atomic energy  EATOM  =      3497.62693919
  Solvation  Ediel_sol  =         0.00000000
  free energy    TOTEN  =        -2.17112176 eV

  energy without entropy =       -2.16920400  energy(sigma->0) =       -2.17016288

 average (electrostatic) potential at core
  the test charge radii are     0.9521
  (the norm of the test charge is              1.0000)
       1 -36.9501       2 -36.9501

 E-fermi :   2.8471     XC(G=0): -11.5005     alpha+bet : -7.3748

 val. band max:        2.8247538668   @ k =  -0.3750   0.2500   0.3750
 cond. band min:       2.8679646184   @ k =   0.5000   0.1250   0.0000
 fundamental gap:      0.0432107516
 Fermi energy:         2.8470732328

 k-point     1 :       0.0000    0.0000    0.0000
  band No.  band energies     occupation
      1      -7.2853      2.00000
      2      -5.5381      2.00000
      3      -4.8529      2.00000
      4      -4.6019      2.00000
      5      -4.6018      2.00000
      6      -4.5558      2.00000
      7      -4.5557      2.00000
      8      -4.2242      2.00000
      9      -4.2242      2.00000
     10      -4.0313      2.00000
     11      -4.0312      2.00000
     12      -0.6003      2.00000
     13      -0.1408      2.00000
     14      16.1577      0.00000
     15      19.8666      0.00000
     16      20.6102      0.00000
     17      20.6103      0.00000
     18      22.2329      0.00000
     19      22.2329      0.00000
     20      22.3670      0.00000
     21      23.6071      0.00000
     22      26.9303      0.00000
     23      26.9304      0.00000
     24      27.1546      0.00000
     25      28.2734      0.00000
     26      28.2739      0.00000
     27      28.4094      0.00000
     28      28.4095      0.00000
     29      28.8807      0.00000
     30      28.8807      0.00000
     31      28.9588      0.00000
     32      30.2851      0.00000
     33      36.0324      0.00000
     34      44.7247      0.00000
     35      44.7248      0.00000
     36      44.9319      0.00000
     37      45.0563      0.00000
     38      45.0563      0.00000
     39      45.9941      0.00000
     40      45.9944      0.00000
     41      46.2079      0.00000
     42      46.7811      0.00000
     43      46.7812      0.00000
     44      47.2400      0.00000
     45      48.0404      0.00000
     46      50.0390      0.00000
     47      58.3455      0.00000
     48      70.5706      0.00000

[...]

 k-point    50 :      -0.3750    0.2500    0.5000
  band No.  band energies     occupation
      1      -4.9345      2.00000
      2      -4.9345      2.00000
      3      -4.8027      2.00000
      4      -4.8027      2.00000
      5      -4.5414      2.00000
      6      -4.5414      2.00000
      7      -4.3023      2.00000
      8      -4.3023      2.00000
      9      -4.0381      2.00000
     10      -4.0381      2.00000
     11       3.0844      0.00000
     12       3.0844      0.00000
     13       4.1893      0.00000
     14       4.1893      0.00000
     15       7.3087      0.00000
     16       7.3087      0.00000
     17      14.3358      0.00000
     18      14.3358      0.00000
     19      17.3280      0.00000
     20      17.3280      0.00000
     21      20.1458      0.00000
     22      20.1458      0.00000
     23      29.0668      0.00000
     24      29.0668      0.00000
     25      35.5152      0.00000
     26      35.5152      0.00000
     27      36.1185      0.00000
     28      36.1185      0.00000
     29      38.6707      0.00000
     30      38.6707      0.00000
     31      40.1189      0.00000
     32      40.1189      0.00000
     33      40.9649      0.00000
     34      40.9649      0.00000
     35      44.3603      0.00000
     36      44.3603      0.00000
     37      47.5818      0.00000
     38      47.5818      0.00000
     39      48.7692      0.00000
     40      48.7692      0.00000
     41      55.7822      0.00000
     42      55.7822      0.00000
     43      57.0246      0.00000
     44      57.0246      0.00000
     45      59.2844      0.00000
     46      59.2844      0.00000
     47      61.5409      0.00000
     48      61.5409      0.00000

 soft charge-density along one line, spin component           1
         0         1         2         3         4         5         6         7         8         9
 total charge-density along one line

------------------------ aborting loop because EDIFF is reached ----------------------------------------

  FORCE on cell =-STRESS in cart. coord.  units (eV):
  Direction    XX          YY          ZZ          XY          YZ          ZX
  Alpha Z   206.21416   206.21416   206.21416
  Ewald    -741.13981  -741.13981  -919.71554    -0.00000     0.00000     0.00000
  Hartree   359.78394   359.78393   247.93099     0.00000    -0.00000    -0.00000
  E(xc)    -144.04679  -144.04665  -144.22781    -0.00012    -0.00001    -0.00002
  Local     161.43776   161.43374   450.94219     0.00349    -0.00009    -0.00016
  n-local   -64.80465   -66.19131   -66.21518    -0.26299     0.22025    -0.45024
  augment    82.33939    82.34371    82.74588    -0.00374     0.00010     0.00017
  Kinetic   151.64444   130.32837   141.77040    -9.04648     1.35243    -3.14275
  Fock        0.00000     0.00000     0.00000     0.00000     0.00000     0.00000
  Total       0.07728     0.07728    -0.55491     0.00000    -0.00000     0.00000
  in kB       4.03314     4.03314   -28.95814     0.00000    -0.00000     0.00000

 VOLUME and BASIS-vectors are now :
  energy-cutoff  :      359.74
  volume of cell :       30.70
      direct lattice vectors                 reciprocal lattice vectors
     2.661690000  0.000000000  0.000000000     0.375701152 -0.216911161  0.000000000
     1.330845000  2.305091157  0.000000000     0.000000000  0.433822323  0.000000000
     0.000000000  0.000000000  5.003970000    -0.000000000 -0.000000000  0.199841326

  length of vectors
     2.661690000  2.661690000  5.003970000     0.433822323  0.433822323  0.199841326

 FORCES acting on ions
    electron-ion (+dipol)            ewald-force                    non-local-force                 convergence-correction
   -.383E-05 -.221E-05 -.252E-05   0.699E-12 0.398E-12 -.464E-13   -.351E-17 -.424E-17 0.511E-18   -.266E-08 -.153E-08 -.206E-11
   0.383E-05 0.221E-05 0.252E-05   -.706E-12 -.402E-12 0.463E-13   0.473E-17 0.684E-17 -.926E-18   0.266E-08 0.153E-08 0.225E-11
   0.181E-12 0.635E-12 -.208E-11   -.687E-14 -.335E-14 -.191E-16   0.122E-17 0.260E-17 -.415E-18   -.796E-14 -.531E-13 0.199E-12

 POSITION                                       TOTAL-FORCE (eV/Angst)
      0.00000      0.00000      0.00000        -0.000000     -0.000000     -0.000000
      1.33085      0.76836      2.50198         0.000000      0.000000      0.000000
    total drift:                                0.000000      0.000000     -0.000000

  FREE ENERGIE OF THE ION-ELECTRON SYSTEM (eV)
  free  energy   TOTEN  =        -2.17112176 eV

  energy  without entropy=       -2.16920400  energy(sigma->0) =       -2.17016288

 writing wavefunctions