 vasp.6.4.3 19Mar24 (build Jun 26 2024 13:02:28) complex

 executed on             LinuxIFC date 2025.08.08  20:08:40

 INCAR:
   ENCUT = 309.18550000000005
   IBRION = -1
   ISMEAR = 0
   ISYM = 2
   LCHARG = True
   LSORBIT = True
   LWAVE = True
   SAXIS = 0 0 1
   SIGMA = 0.05
   SYSTEM = Pb

 POTCAR:  PAW_PBE Pb_d 06Sep2000
|           W    W    AA    RRRRR   N    N  II  N    N   GGGG   !!!           |
|           W    W   A  A   R    R  NN   N  II  NN   N  G    G  !!!           |
|           W    W  A    A  R    R  N N  N  II  N N  N  G       !!!           |
|           W WW W  AAAAAA  RRRRR   N  N N  II  N  N N  G  GGG   !            |
|           WW  WW  A    A  R   R   N   NN  II  N   NN  G    G                |
|           W    W  A    A  R    R  N    N  II  N    N   GGGG   !!!           |
|     You use a magnetic or noncollinear calculation, but did not specify     |
|     the initial magnetic moment with the MAGMOM tag. Note that a            |
|     default of 1 will be used for all atoms. This ferromagnetic setup       |
|     may break the symmetry of the crystal, in particular it may rule        |
|     out finding an antiferromagnetic solution. Thence, we recommend         |
|     setting the initial magnetic moment manually or verifying carefully     |
|     that this magnetic setup is desired.                                    |

 POTCAR:  PAW_PBE Pb_d 06Sep2000
   VRHFIN =Pb:

   TITEL  = PAW_PBE Pb_d 06Sep2000
   POMASS =  207.200; ZVAL   =   14.000    mass and valenz
   ENMAX  =  237.835; ENMIN  =  178.376 eV

PAW_PBE Pb_d 06Sep2000                  :

 POSCAR: Pb4
  positions in direct lattice

 exchange-correlation table for PE
   RHO(1)=    0.500       N(1)  =     2000
   RHO(2)=  100.500       N(2)  =     4000

 ion  position               nearest neighbor table
   1  0.000  0.000  0.000-   2 3.57   3 3.57   2 3.57   3 3.57   2 3.57   4 3.57   2 3.57   3 3.57
                             4 3.57   3 3.57   4 3.57   4 3.57
   2  0.000  0.500  0.500-   1 3.57   4 3.57   1 3.57   4 3.57   1 3.57   3 3.57   1 3.57   3 3.57
                             4 3.57   4 3.57   3 3.57   3 3.57
   3  0.500  0.000  0.500-   1 3.57   4 3.57   1 3.57   4 3.57   2 3.57   4 3.57   4 3.57   1 3.57
                             2 3.57   1 3.57   2 3.57   2 3.57
   4  0.500  0.500  0.000-   2 3.57   3 3.57   2 3.57   3 3.57   1 3.57   3 3.57   3 3.57   1 3.57
                             2 3.57   2 3.57   1 3.57   1 3.57

  LATTYP: Found a simple cubic cell.
 ALAT       =     5.0438600000

  Lattice vectors:

 A1 = (   5.0438600000,   0.0000000000,   0.0000000000)
 A2 = (   0.0000000000,   5.0438600000,   0.0000000000)
 A3 = (   0.0000000000,   0.0000000000,   5.0438600000)

Analysis of symmetry for initial positions (statically):
 Subroutine PRICEL returns following result:

  LATTYP: Found a face centered cubic cell.
 ALAT       =     5.0438600000

[...]

   4 primitive cells build up your supercell.

 Routine SETGRP: Setting up the symmetry group for a
 simple cubic supercell.

 Subroutine GETGRP returns: Found 48 space group operations
 (whereof 48 operations were pure point group operations)
 out of a pool of 48 trial point group operations.

The static configuration has the point symmetry O_h .

Analysis of symmetry for dynamics (positions and initial velocities):
 Subroutine PRICEL returns following result:

[...]

The dynamic configuration has the point symmetry O_h .

Analysis of structural, dynamic, and magnetic symmetry:
 Subroutine PRICEL returns following result:

  LATTYP: Found a face centered cubic cell.
 ALAT       =     5.0438600000

  Lattice vectors:

 A1 = (   2.5219300000,  -2.5219300000,   0.0000000000)
 A2 = (   2.5219300000,   0.0000000000,   2.5219300000)
 A3 = (  -0.0000000000,  -2.5219300000,   2.5219300000)

   4 primitive cells build up your supercell.

 Routine SETGRP: Setting up the symmetry group for a
 simple cubic supercell.

 Subroutine GETGRP returns: Found  6 space group operations
 (whereof  6 operations were pure point group operations)
 out of a pool of 48 trial point group operations.

The overall configuration has the point symmetry S_6 .

 Subroutine INISYM returns: Found  6 space group operations
 (whereof  6 operations are pure point group operations),
 and found     4 'primitive' translations

                                     Primitive cell

  volume of cell :      32.0796

  direct lattice vectors                    reciprocal lattice vectors
     2.521930000 -2.521930000  0.000000000     0.198260856 -0.198260856 -0.198260856
     2.521930000  0.000000000  2.521930000     0.198260856  0.198260856  0.198260856
    -0.000000000 -2.521930000  2.521930000    -0.198260856 -0.198260856  0.198260856

  length of vectors
     3.566547609  3.566547609  3.566547609     0.343397875  0.343397875  0.343397875

  position of ions in fractional coordinates (direct lattice)
     0.000000000  0.000000000  0.000000000

  ion indices of the primitive-cell ions
   primitive index   ion index
                 1           1

 KPOINTS: Automatic kpoint scheme

Automatic generation of k-mesh.
 Grid dimensions read from file:
 generate k-points for:    8    8    8

 Generating k-lattice:

  Cartesian coordinates                     Fractional coordinates (reciprocal lattice)
     0.024782607 -0.000000000  0.000000000     0.125000000 -0.000000000  0.000000000
     0.000000000  0.024782607  0.000000000     0.000000000  0.125000000  0.000000000
    -0.000000000 -0.000000000  0.024782607    -0.000000000 -0.000000000  0.125000000

  Length of vectors
     0.024782607  0.024782607  0.024782607

  Shift w.r.t. Gamma in fractional coordinates (k-lattice)
     0.000000000  0.000000000  0.000000000

 Subroutine IBZKPT returns following result:

 Found     90 irreducible k-points:

 Following reciprocal coordinates:
            Coordinates               Weight
  0.000000  0.000000  0.000000      1.000000
  0.125000 -0.000000  0.000000      6.000000
  0.250000 -0.000000  0.000000      6.000000
  0.375000 -0.000000  0.000000      6.000000
  0.500000 -0.000000  0.000000      3.000000
  0.125000  0.125000  0.000000      6.000000
 -0.125000  0.125000  0.000000      6.000000
  0.250000  0.125000  0.000000      6.000000
 -0.125000  0.250000  0.000000      6.000000
 -0.000000  0.125000  0.250000      6.000000
 -0.000000 -0.250000  0.125000      6.000000
  0.375000  0.125000  0.000000      6.000000
 -0.125000  0.375000  0.000000      6.000000
 -0.000000  0.125000  0.375000      6.000000
 -0.000000 -0.375000  0.125000      6.000000
  0.500000  0.125000  0.000000      6.000000
 -0.125000  0.500000  0.000000      6.000000
  0.250000  0.250000  0.000000      6.000000
 -0.250000  0.250000  0.000000      6.000000
  0.375000  0.250000  0.000000      6.000000
 -0.250000  0.375000  0.000000      6.000000
 -0.000000  0.250000  0.375000      6.000000
 -0.000000 -0.375000  0.250000      6.000000
  0.500000  0.250000  0.000000      6.000000
 -0.250000  0.500000  0.000000      6.000000
  0.375000  0.375000  0.000000      6.000000
 -0.375000  0.375000  0.000000      6.000000
  0.500000  0.375000  0.000000      6.000000
 -0.375000  0.500000  0.000000      6.000000
  0.500000  0.500000  0.000000      3.000000
  0.125000  0.125000  0.125000      2.000000
 -0.125000  0.125000  0.125000      6.000000
  0.250000  0.125000  0.125000      6.000000
 -0.125000  0.250000  0.125000      6.000000
 -0.250000  0.125000  0.125000      6.000000
 -0.125000  0.125000  0.250000      6.000000
  0.375000  0.125000  0.125000      6.000000
 -0.125000  0.375000  0.125000      6.000000
 -0.375000  0.125000  0.125000      6.000000
 -0.125000  0.125000  0.375000      6.000000
  0.500000  0.125000  0.125000      6.000000
 -0.125000  0.500000  0.125000      6.000000
  0.250000  0.250000  0.125000      6.000000
 -0.250000  0.250000  0.125000      6.000000
 -0.250000  0.125000  0.250000      6.000000
 -0.125000  0.250000  0.250000      6.000000
  0.375000  0.250000  0.125000      6.000000
 -0.250000  0.375000  0.125000      6.000000
 -0.375000  0.125000  0.250000      6.000000
 -0.125000  0.250000  0.375000      6.000000
 -0.375000 -0.250000  0.125000      6.000000
 -0.125000 -0.375000  0.250000      6.000000
 -0.250000 -0.125000  0.375000      6.000000
 -0.375000 -0.125000 -0.250000      6.000000
  0.500000  0.250000  0.125000      6.000000
 -0.250000  0.500000  0.125000      6.000000
  0.500000  0.125000  0.250000      6.000000
  0.500000 -0.250000  0.125000      6.000000
  0.375000  0.375000  0.125000      6.000000
 -0.375000  0.375000  0.125000      6.000000
[...]
  0.375000  0.375000  0.250000      6.000000
 -0.375000  0.375000  0.250000      6.000000
 -0.375000  0.250000  0.375000      6.000000
 -0.250000  0.375000  0.375000      6.000000
  0.500000  0.375000  0.250000      6.000000
 -0.375000  0.500000  0.250000      6.000000
  0.500000  0.250000  0.375000      6.000000
  0.500000 -0.375000  0.250000      6.000000
  0.500000  0.500000  0.250000      6.000000
  0.375000  0.375000  0.375000      2.000000
 -0.375000  0.375000  0.375000      6.000000
  0.500000  0.375000  0.375000      6.000000
 -0.375000  0.500000  0.375000      6.000000
  0.500000  0.500000  0.375000      6.000000
  0.500000  0.500000  0.500000      1.000000

 Following cartesian coordinates:
            Coordinates               Weight
  0.000000  0.000000  0.000000      1.000000
  0.024783 -0.000000  0.000000      6.000000
  0.049565 -0.000000  0.000000      6.000000
  0.074348 -0.000000  0.000000      6.000000
  0.099130 -0.000000  0.000000      3.000000
  0.024783  0.024783  0.000000      6.000000
 -0.024783  0.024783  0.000000      6.000000
  0.049565  0.024783  0.000000      6.000000
 -0.024783  0.049565  0.000000      6.000000
 -0.000000  0.024783  0.049565      6.000000
 -0.000000 -0.049565  0.024783      6.000000
  0.074348  0.024783  0.000000      6.000000
 -0.024783  0.074348  0.000000      6.000000
 -0.000000  0.024783  0.074348      6.000000
 -0.000000 -0.074348  0.024783      6.000000
  0.099130  0.024783  0.000000      6.000000
 -0.024783  0.099130  0.000000      6.000000
  0.049565  0.049565  0.000000      6.000000
 -0.049565  0.049565  0.000000      6.000000
  0.074348  0.049565  0.000000      6.000000
 -0.049565  0.074348  0.000000      6.000000
 -0.000000  0.049565  0.074348      6.000000
 -0.000000 -0.074348  0.049565      6.000000
  0.099130  0.049565  0.000000      6.000000
 -0.049565  0.099130  0.000000      6.000000
  0.074348  0.074348  0.000000      6.000000
 -0.074348  0.074348  0.000000      6.000000
  0.099130  0.074348  0.000000      6.000000
 -0.074348  0.099130  0.000000      6.000000
  0.099130  0.099130  0.000000      3.000000
  0.024783  0.024783  0.024783      2.000000
 -0.024783  0.024783  0.024783      6.000000
  0.049565  0.024783  0.024783      6.000000
 -0.024783  0.049565  0.024783      6.000000
 -0.049565  0.024783  0.024783      6.000000
 -0.024783  0.024783  0.049565      6.000000
  0.074348  0.024783  0.024783      6.000000
 -0.024783  0.074348  0.024783      6.000000
 -0.074348  0.024783  0.024783      6.000000
 -0.024783  0.024783  0.074348      6.000000
  0.099130  0.024783  0.024783      6.000000
[...]
 k-point    48 :  -0.2500 0.3750 0.1250  plane waves:    3170
 k-point    49 :  -0.3750 0.1250 0.2500  plane waves:    3170
 k-point    50 :  -0.1250 0.2500 0.3750  plane waves:    3170
 k-point    51 :  -0.3750-0.2500 0.1250  plane waves:    3170
 k-point    52 :  -0.1250-0.3750 0.2500  plane waves:    3170
 k-point    53 :  -0.2500-0.1250 0.3750  plane waves:    3170
 k-point    54 :  -0.3750-0.1250-0.2500  plane waves:    3170
 k-point    55 :   0.5000 0.2500 0.1250  plane waves:    3152
 k-point    56 :  -0.2500 0.5000 0.1250  plane waves:    3152
 k-point    57 :   0.5000 0.1250 0.2500  plane waves:    3152
 k-point    58 :   0.5000-0.2500 0.1250  plane waves:    3152
 k-point    59 :   0.3750 0.3750 0.1250  plane waves:    3166
 k-point    60 :  -0.3750 0.3750 0.1250  plane waves:    3166
[...]
 k-point    76 :   0.3750 0.3750 0.2500  plane waves:    3146
 k-point    77 :  -0.3750 0.3750 0.2500  plane waves:    3146
 k-point    78 :  -0.3750 0.2500 0.3750  plane waves:    3146
 k-point    79 :  -0.2500 0.3750 0.3750  plane waves:    3146
 k-point    80 :   0.5000 0.3750 0.2500  plane waves:    3176
 k-point    81 :  -0.3750 0.5000 0.2500  plane waves:    3176
 k-point    82 :   0.5000 0.2500 0.3750  plane waves:    3176
 k-point    83 :   0.5000-0.3750 0.2500  plane waves:    3176
 k-point    84 :   0.5000 0.5000 0.2500  plane waves:    3192
 k-point    85 :   0.3750 0.3750 0.3750  plane waves:    3172
 k-point    86 :  -0.3750 0.3750 0.3750  plane waves:    3172
 k-point    87 :   0.5000 0.3750 0.3750  plane waves:    3172
 k-point    88 :  -0.3750 0.5000 0.3750  plane waves:    3172
 k-point    89 :   0.5000 0.5000 0.3750  plane waves:    3176
 k-point    90 :   0.5000 0.5000 0.5000  plane waves:    3136

 maximum and minimum number of plane-waves per node :      3244     3136

 maximum number of plane-waves:      3244
 maximum index in each direction:
   IXMAX=    7   IYMAX=    7   IZMAX=    7
   IXMIN=   -7   IYMIN=   -7   IZMIN=   -7

 serial   3D FFT for wavefunctions
 parallel 3D FFT for charge:
    minimum data exchange during FFTs selected (reduces bandwidth)

 Broyden mixing: mesh for mixing (old mesh)
   NGX = 15   NGY = 15   NGZ = 15
  (NGX  = 48   NGY  = 48   NGZ  = 48)
  gives a total of   3375 points

 charge density for first step will be calculated from the start-wavefunctions

 Maximum index for augmentation-charges          373 (set IRDMAX)

 initial charge from wavefunction
 First call to EWALD:  gamma=   0.351
 Maximum number of real-space cells 3x 3x 3
 Maximum number of reciprocal cells 3x 3x 3

--------------------------------------- Ionic step        1  -------------------------------------------

--------------------------------------- Iteration      1(   1)  ---------------------------------------

 eigenvalue-minimisations  : 15696
 total energy-change (2. order) :-0.1641802E+02  (-0.2666043E-06)
 number of electron      55.9999926 magnetization      -0.0000304     -0.0000304     -0.0000304
 augmentation part       22.2085178 magnetization      -0.0000002     -0.0000002     -0.0000002

 Broyden mixing:
  rms(total) = 0.88389E-04    rms(broyden)= 0.88380E-04
  rms(prec ) = 0.13941E-03
  weight for this iteration     100.00

 Free energy of the ion-electron system (eV)
  alpha Z        PSCENC =       204.57666682
  Ewald energy   TEWEN  =     -5131.03995606
  -Hartree energ DENC   =     -1567.62204567
  -exchange      EXHF   =         0.00000000
  -V(xc)+E(xc)   XCENC  =       151.00713439
  PAW double counting   =      5884.00733616    -5821.41945364
  entropy T*S    EENTRO =        -0.00116324
  eigenvalues    EBANDS =      -382.22538305
  atomic energy  EATOM  =      6646.29884810
  Solvation  Ediel_sol  =         0.00000000
  free energy    TOTEN  =       -16.41801620 eV

  energy without entropy =      -16.41685296  energy(sigma->0) =      -16.41743458

--------------------------------------- Iteration      1(   2)  ---------------------------------------

 eigenvalue-minimisations  : 16032
 total energy-change (2. order) :-0.1272292E-06  (-0.4657928E-07)
 number of electron      55.9999926 magnetization      -0.0000304     -0.0000304     -0.0000304
 augmentation part       22.2085178 magnetization      -0.0000002     -0.0000002     -0.0000002

 Free energy of the ion-electron system (eV)
  alpha Z        PSCENC =       204.57666682
  Ewald energy   TEWEN  =     -5131.03995606
  -Hartree energ DENC   =     -1567.62468212
  -exchange      EXHF   =         0.00000000
  -V(xc)+E(xc)   XCENC  =       151.00722537
  PAW double counting   =      5883.99595073    -5821.40753367
  entropy T*S    EENTRO =        -0.00116324
  eigenvalues    EBANDS =      -382.22337226
  atomic energy  EATOM  =      6646.29884810
  Solvation  Ediel_sol  =         0.00000000
  free energy    TOTEN  =       -16.41801633 eV

  energy without entropy =      -16.41685309  energy(sigma->0) =      -16.41743471

 average (electrostatic) potential at core
  the test charge radii are     1.1541
  (the norm of the test charge is              1.0000)
       1 -90.7120       2 -90.7120       3 -90.7120       4 -90.7120

 E-fermi :   6.5358     XC(G=0):  -9.8946     alpha+bet :-11.5788

 val. band max:        6.5162200049   @ k =  -0.0000  -0.3750   0.1250
 cond. band min:       6.6595272081   @ k =  -0.1250   0.1250   0.2500
 fundamental gap:      0.1433072031
 Fermi energy:         6.5357832876

 k-point     1 :       0.0000    0.0000    0.0000
  band No.  band energies     occupation
      1     -11.7613      1.00000
      2     -11.7613      1.00000
      3     -11.7613      1.00000
      4     -11.7613      1.00000
      5     -11.7369      1.00000
      6     -11.7369      1.00000
      7     -11.7369      1.00000
      8     -11.7369      1.00000
      9     -11.7369      1.00000
     10     -11.7369      1.00000
     11     -11.6930      1.00000
     12     -11.6930      1.00000
     13     -11.6930      1.00000
     14     -11.6930      1.00000
     15     -11.6930      1.00000
     16     -11.6930      1.00000
     17      -9.2667      1.00000
     18      -9.2667      1.00000
     19      -9.2427      1.00000
     20      -9.2427      1.00000
     21      -9.2427      1.00000
     22      -9.2427      1.00000
     23      -9.2427      1.00000
     24      -9.2427      1.00000
     25      -9.1850      1.00000
     26      -9.1850      1.00000
     27      -9.1850      1.00000
     28      -9.1850      1.00000
     29      -9.1835      1.00000
     30      -9.1835      1.00000
     31      -9.1835      1.00000
     32      -9.1835      1.00000
     33      -9.1835      1.00000
     34      -9.1835      1.00000
     35      -8.9822      1.00000
     36      -8.9822      1.00000
     37      -8.9822      1.00000
     38      -8.9822      1.00000
     39      -8.9822      1.00000
     40      -8.9822      1.00000
     41      -4.6859      1.00000
     42      -4.6859      1.00000
     43      -0.0897      1.00000
     44      -0.0897      1.00000
     45      -0.0897      1.00000
     46      -0.0897      1.00000
     47      -0.0897      1.00000
     48      -0.0897      1.00000
     49       3.4711      1.00000
     50       3.4711      1.00000
     51       3.4711      1.00000
     52       3.4711      1.00000
     53       3.4711      1.00000
     54       3.4711      1.00000
     55       8.0759      0.00000
     56       8.0759      0.00000
     57       8.0759      0.00000
     58       8.0759      0.00000
     59       8.0759      0.00000
     60       8.0759      0.00000
[...]
     82      14.5514      0.00000
     83      14.5514      0.00000
     84      14.5514      0.00000
     85      16.4149      0.00000
     86      16.4149      0.00000
     87      17.3315      0.00000
     88      17.3315      0.00000
     89      18.6730      0.00000
     90      18.6731      0.00000
     91      18.6731      0.00000
     92      18.6731      0.00000
     93      18.9947      0.00000
     94      18.9947      0.00000
     95      20.7769      0.00000
     96      20.7769      0.00000

[...]

 k-point    90 :       0.5000    0.5000    0.5000
  band No.  band energies     occupation
      1     -11.7500      1.00000
      2     -11.7500      1.00000
      3     -11.7500      1.00000
      4     -11.7500      1.00000
      5     -11.7500      1.00000
      6     -11.7500      1.00000
      7     -11.7500      1.00000
      8     -11.7500      1.00000
      9     -11.6962      1.00000
     10     -11.6962      1.00000
     11     -11.6962      1.00000
     12     -11.6962      1.00000
     13     -11.6962      1.00000
     14     -11.6962      1.00000
     15     -11.6962      1.00000
     16     -11.6962      1.00000
     17      -9.2598      1.00000
     18      -9.2598      1.00000
     19      -9.2598      1.00000
     20      -9.2598      1.00000
     21      -9.2598      1.00000
     22      -9.2598      1.00000
     23      -9.2598      1.00000
     24      -9.2598      1.00000
     25      -9.1622      1.00000
     26      -9.1622      1.00000
     27      -9.1622      1.00000
     28      -9.1622      1.00000
     29      -9.1622      1.00000
     30      -9.1622      1.00000
     31      -9.1622      1.00000
     32      -9.1622      1.00000
     33      -9.0585      1.00000
     34      -9.0585      1.00000
     35      -9.0585      1.00000
     36      -9.0585      1.00000
     37      -9.0585      1.00000
     38      -9.0585      1.00000
     39      -9.0585      1.00000
     40      -9.0585      1.00000
     41      -1.3689      1.00000
     42      -1.3689      1.00000
     43      -1.3689      1.00000
     44      -1.3689      1.00000
     45      -1.3689      1.00000
     46      -1.3689      1.00000
     47      -1.3689      1.00000
     48      -1.3689      1.00000
     49       2.6452      1.00000
     50       2.6452      1.00000
     51       2.6452      1.00000
     52       2.6452      1.00000
     53       2.6452      1.00000
     54       2.6452      1.00000
     55       2.6452      1.00000
     56       2.6452      1.00000
     57      11.0125      0.00000
     58      11.0125      0.00000
     59      11.0125      0.00000
     60      11.0125      0.00000
[...]
     82      15.8894      0.00000
     83      15.8894      0.00000
     84      15.8894      0.00000
     85      15.8894      0.00000
     86      15.8894      0.00000
     87      15.8894      0.00000
     88      15.8894      0.00000
     89      17.4207      0.00000
     90      17.4207      0.00000
     91      17.4207      0.00000
     92      17.4207      0.00000
     93      17.4207      0.00000
     94      17.4207      0.00000
     95      17.4207      0.00000
     96      17.4207      0.00000

 soft charge-density along one line, spin component           1
         0         1         2         3         4         5         6         7         8         9
 total charge-density along one line

[...]

 soft charge-density along one line, spin component           4
         0         1         2         3         4         5         6         7         8         9
 total charge-density along one line

------------------------ aborting loop because EDIFF is reached ----------------------------------------

  FORCE on cell =-STRESS in cart. coord.  units (eV):
  Direction    XX          YY          ZZ          XY          YZ          ZX
  Alpha Z   204.57667   204.57667   204.57667
  Ewald   -1710.34740 -1710.34740 -1710.34740    -0.00000     0.00000     0.00000
  Hartree   522.54020   522.54020   522.54020     0.00001     0.00001     0.00001
  E(xc)    -266.37680  -266.37680  -266.37680     0.00000     0.00000     0.00000
  Local     -92.10240   -92.10240   -92.10240    -0.00003    -0.00003    -0.00003
  n-local   277.68408   278.17139   277.41848     0.31909    -0.95314     0.63372
  augment   492.94054   492.94054   492.94054    -0.00004    -0.00004    -0.00004
  Kinetic   567.75348   568.50977   575.20344    -0.72225     2.05190    -1.32945
  Fock        0.00000     0.00000     0.00000     0.00000     0.00000     0.00000
  Total      -0.52231    -0.52231    -0.52231    -0.00010    -0.00010    -0.00010
  in kB      -6.52151    -6.52151    -6.52151    -0.00124    -0.00124    -0.00124

 VOLUME and BASIS-vectors are now :
  energy-cutoff  :      309.19
  volume of cell :      128.32
      direct lattice vectors                 reciprocal lattice vectors
     5.043860000  0.000000000  0.000000000     0.198260856 -0.000000000  0.000000000
     0.000000000  5.043860000  0.000000000     0.000000000  0.198260856  0.000000000
     0.000000000  0.000000000  5.043860000    -0.000000000 -0.000000000  0.198260856

  length of vectors
     5.043860000  5.043860000  5.043860000     0.198260856  0.198260856  0.198260856

 FORCES acting on ions
    electron-ion (+dipol)            ewald-force                    non-local-force                 convergence-correction
   -.171E-13 -.151E-13 -.177E-13   0.106E-13 -.743E-15 -.102E-13   0.109E-21 -.146E-21 -.233E-21   -.146E-13 0.880E-14 0.109E-13
   -.208E-13 0.614E-12 0.612E-12   0.112E-13 -.397E-14 0.523E-14   -.209E-21 -.237E-21 0.220E-21   -.131E-13 0.570E-14 0.748E-14
   0.634E-12 -.209E-13 -.339E-11   -.127E-13 0.245E-14 0.532E-14   0.894E-22 0.416E-22 -.315E-21   -.902E-14 0.156E-13 0.660E-14
   0.642E-12 -.339E-11 -.141E-13   -.121E-13 -.771E-15 0.197E-14   -.248E-21 -.945E-22 0.547E-22   -.118E-13 -.126E-14 0.148E-13
   0.124E-11 -.282E-11 -.281E-11   -.305E-14 -.303E-14 0.236E-14   -.258E-21 -.436E-21 -.275E-21   -.485E-13 0.289E-13 0.398E-13

 POSITION                                       TOTAL-FORCE (eV/Angst)
      0.00000      0.00000      0.00000        -0.000000     -0.000000      0.000000
      0.00000      2.52193      2.52193         0.000000      0.000000     -0.000000
      2.52193      0.00000      2.52193         0.000000     -0.000000      0.000000
      2.52193      2.52193      0.00000         0.000000      0.000000     -0.000000
    total drift:                                0.000000     -0.000000     -0.000000

  FREE ENERGIE OF THE ION-ELECTRON SYSTEM (eV)
  free  energy   TOTEN  =       -16.41801633 eV

  energy  without entropy=      -16.41685309  energy(sigma->0) =      -16.41743471

 writing wavefunctions

 Spin-Orbit-Coupling matrix elements

 Ion:    1  E_soc:     -1.1394827
 l=   1
     0.0000000    -0.1231633    -0.1231633
    -0.1231633     0.0000000    -0.1231633
    -0.1231633    -0.1231633     0.0000000
 l=   2
     0.0000000    -0.0134251     0.0000000    -0.0134251    -0.0533253
    -0.0134251     0.0000000    -0.0399940    -0.0134251    -0.0133313
     0.0000000    -0.0399940     0.0000000    -0.0399940     0.0000000
    -0.0134251    -0.0134251    -0.0399940     0.0000000    -0.0133313
    -0.0533253    -0.0133313     0.0000000    -0.0133313     0.0000000
 l=   3
     0.0000000     0.0000000     0.0000000     0.0000000     0.0000000     0.0000000     0.0000000
     0.0000000     0.0000000     0.0000000     0.0000000     0.0000000     0.0000000     0.0000000
     0.0000000     0.0000000     0.0000000     0.0000000     0.0000000     0.0000000     0.0000000
     0.0000000     0.0000000     0.0000000     0.0000000     0.0000000     0.0000000     0.0000000
     0.0000000     0.0000000     0.0000000     0.0000000     0.0000000     0.0000000     0.0000000
     0.0000000     0.0000000     0.0000000     0.0000000     0.0000000     0.0000000     0.0000000
     0.0000000     0.0000000     0.0000000     0.0000000     0.0000000     0.0000000     0.0000000

[...]

 Ion:    4  E_soc:     -1.1394827
 l=   1
     0.0000000    -0.1231633    -0.1231633
    -0.1231633     0.0000000    -0.1231633
    -0.1231633    -0.1231633     0.0000000
 l=   2
     0.0000000    -0.0134251     0.0000000    -0.0134251    -0.0533253
    -0.0134251     0.0000000    -0.0399940    -0.0134251    -0.0133313
     0.0000000    -0.0399940     0.0000000    -0.0399940     0.0000000
    -0.0134251    -0.0134251    -0.0399940     0.0000000    -0.0133313
    -0.0533253    -0.0133313     0.0000000    -0.0133313     0.0000000
 l=   3
     0.0000000     0.0000000     0.0000000     0.0000000     0.0000000     0.0000000     0.0000000
     0.0000000     0.0000000     0.0000000     0.0000000     0.0000000     0.0000000     0.0000000
     0.0000000     0.0000000     0.0000000     0.0000000     0.0000000     0.0000000     0.0000000
     0.0000000     0.0000000     0.0000000     0.0000000     0.0000000     0.0000000     0.0000000
     0.0000000     0.0000000     0.0000000     0.0000000     0.0000000     0.0000000     0.0000000
     0.0000000     0.0000000     0.0000000     0.0000000     0.0000000     0.0000000     0.0000000
     0.0000000     0.0000000     0.0000000     0.0000000     0.0000000     0.0000000     0.0000000