 vasp.6.4.3 19Mar24 (build Jun 26 2024 13:02:28) complex

 executed on             LinuxIFC date 2025.08.08  18:46:37

 INCAR:
   ENCUT = 622.5648
   IBRION = -1
   ISMEAR = 0
   ISYM = 2
   LCHARG = True
   LWAVE = True
   SIGMA = 0.05
   SYSTEM = He

 POTCAR:  PAW_PBE He 05Jan2001
|           W    W    AA    RRRRR   N    N  II  N    N   GGGG   !!!           |
|           W    W   A  A   R    R  NN   N  II  NN   N  G    G  !!!           |
|           W    W  A    A  R    R  N N  N  II  N N  N  G       !!!           |
|           W WW W  AAAAAA  RRRRR   N  N N  II  N  N N  G  GGG   !            |
|           WW  WW  A    A  R   R   N   NN  II  N   NN  G    G                |
|           W    W  A    A  R    R  N    N  II  N    N   GGGG   !!!           |
|     For optimal performance we recommend to set                             |
|       NCORE = 2 up to number-of-cores-per-socket                            |
|     This setting can greatly improve the performance of VASP for DFT.       |
|     The default, NCORE=1 might be grossly inefficient on modern             |
|     multi-core architectures or massively parallel machines. Do your        |
|     Unfortunately you need to use the default for GW and RPA                |
|     calculations (for HF NCORE is supported but not extensively tested      |
|     yet).                                                                   |

 POTCAR:  PAW_PBE He 05Jan2001
   VRHFIN =He: 1s

   TITEL  = PAW_PBE He 05Jan2001
   POMASS =    4.000; ZVAL   =    2.000    mass and valenz
   ENMAX  =  478.896; ENMIN  =  359.172 eV

PAW_PBE He 05Jan2001                    :

 POSCAR: He2
  positions in direct lattice

 exchange-correlation table for PE
   RHO(1)=    0.500       N(1)  =     2000
   RHO(2)=  100.500       N(2)  =     4000

 ion  position               nearest neighbor table
   1  0.000  0.000  0.000-
   2  0.333  0.333  0.500-

  LATTYP: Found a hexagonal cell.
 ALAT       =     2.9266100000
 C/A-ratio  =     1.6329917550

  Lattice vectors:

 A1 = (  -1.4633050000,  -2.5345186070,   0.0000000000)
 A2 = (   2.9266100000,   0.0000000000,   0.0000000000)
 A3 = (   0.0000000000,   0.0000000000,   4.7791300000)

Analysis of symmetry for initial positions (statically):
 Subroutine PRICEL returns:
 Original cell was already a primitive cell.

 Routine SETGRP: Setting up the symmetry group for a
 hexagonal supercell.

 Subroutine GETGRP returns: Found 24 space group operations
 (whereof 12 operations were pure point group operations)
 out of a pool of 24 trial point group operations.

The static configuration has the point symmetry D_3h.
 The point group associated with its full space group is D_6h.

Analysis of symmetry for dynamics (positions and initial velocities):
 Subroutine PRICEL returns:
 Original cell was already a primitive cell.

 Routine SETGRP: Setting up the symmetry group for a
 hexagonal supercell.

 Subroutine GETGRP returns: Found 24 space group operations
 (whereof 12 operations were pure point group operations)
 out of a pool of 24 trial point group operations.

The dynamic configuration has the point symmetry D_3h.
 The point group associated with its full space group is D_6h.

 Subroutine INISYM returns: Found 24 space group operations
 (whereof 12 operations are pure point group operations),
 and found     1 'primitive' translations

                                     Primitive cell

  volume of cell :      35.4494

  direct lattice vectors                    reciprocal lattice vectors
     2.926610000  0.000000000  0.000000000     0.341692265 -0.197276121  0.000000000
     1.463305000  2.534518607  0.000000000     0.000000000  0.394552242  0.000000000
     0.000000000  0.000000000  4.779130000    -0.000000000 -0.000000000  0.209243105

  length of vectors
     2.926610000  2.926610000  4.779130000     0.394552242  0.394552242  0.209243105

  position of ions in fractional coordinates (direct lattice)
     0.000000000  0.000000000  0.000000000
     0.333333333  0.333333333  0.500000000

  ion indices of the primitive-cell ions
   primitive index   ion index
                 1           1
                 2           2

 KPOINTS: Automatic kpoint scheme

Automatic generation of k-mesh.
 Grid dimensions read from file:
 generate k-points for:    8    8    8

 Generating k-lattice:

  Cartesian coordinates                     Fractional coordinates (reciprocal lattice)
     0.042711533 -0.024659515  0.000000000     0.125000000  0.000000000  0.000000000
     0.000000000  0.049319030  0.000000000     0.000000000  0.125000000  0.000000000
    -0.000000000 -0.000000000  0.026155388     0.000000000 -0.000000000  0.125000000

  Length of vectors
     0.049319030  0.049319030  0.026155388

  Shift w.r.t. Gamma in fractional coordinates (k-lattice)
     0.000000000  0.000000000  0.000000000

 Subroutine IBZKPT returns following result:

 Found     50 irreducible k-points:

 Following reciprocal coordinates:
            Coordinates               Weight
  0.000000  0.000000  0.000000      1.000000
  0.125000  0.000000  0.000000      6.000000
  0.250000  0.000000  0.000000      6.000000
  0.375000  0.000000  0.000000      6.000000
  0.500000  0.000000  0.000000      3.000000
  0.250000  0.125000  0.000000      6.000000
  0.375000  0.125000  0.000000     12.000000
  0.500000  0.125000  0.000000     12.000000
  0.500000  0.250000  0.000000      6.000000
 -0.375000  0.250000  0.000000      6.000000
  0.000000 -0.000000  0.125000      2.000000
  0.125000  0.000000  0.125000     12.000000
  0.250000  0.000000  0.125000     12.000000
  0.375000  0.000000  0.125000     12.000000
  0.500000  0.000000  0.125000      6.000000
  0.250000  0.125000  0.125000     12.000000
  0.375000  0.125000  0.125000     24.000000
  0.500000  0.125000  0.125000     24.000000
  0.500000  0.250000  0.125000     12.000000
 -0.375000  0.250000  0.125000     12.000000
  0.000000 -0.000000  0.250000      2.000000
  0.125000 -0.000000  0.250000     12.000000
  0.250000  0.000000  0.250000     12.000000
  0.375000  0.000000  0.250000     12.000000
  0.500000  0.000000  0.250000      6.000000
  0.250000  0.125000  0.250000     12.000000
  0.375000  0.125000  0.250000     24.000000
  0.500000  0.125000  0.250000     24.000000
  0.500000  0.250000  0.250000     12.000000
 -0.375000  0.250000  0.250000     12.000000
  0.000000 -0.000000  0.375000      2.000000
  0.125000  0.000000  0.375000     12.000000
  0.250000  0.000000  0.375000     12.000000
  0.375000  0.000000  0.375000     12.000000
  0.500000  0.000000  0.375000      6.000000
  0.250000  0.125000  0.375000     12.000000
  0.375000  0.125000  0.375000     24.000000
  0.500000  0.125000  0.375000     24.000000
  0.500000  0.250000  0.375000     12.000000
 -0.375000  0.250000  0.375000     12.000000
  0.000000 -0.000000  0.500000      1.000000
  0.125000  0.000000  0.500000      6.000000
  0.250000 -0.000000  0.500000      6.000000
  0.375000  0.000000  0.500000      6.000000
  0.500000  0.000000  0.500000      3.000000
  0.250000  0.125000  0.500000      6.000000
  0.375000  0.125000  0.500000     12.000000
  0.500000  0.125000  0.500000     12.000000
  0.500000  0.250000  0.500000      6.000000
 -0.375000  0.250000  0.500000      6.000000

 Following cartesian coordinates:
            Coordinates               Weight
  0.000000  0.000000  0.000000      1.000000
  0.042712 -0.024660  0.000000      6.000000
  0.085423 -0.049319  0.000000      6.000000
  0.128135 -0.073979  0.000000      6.000000
  0.170846 -0.098638  0.000000      3.000000
  0.085423  0.000000  0.000000      6.000000
  0.128135 -0.024660  0.000000     12.000000
  0.170846 -0.049319  0.000000     12.000000
  0.170846  0.000000  0.000000      6.000000
 -0.128135  0.172617  0.000000      6.000000
 -0.000000 -0.000000  0.026155      2.000000
  0.042712 -0.024660  0.026155     12.000000
  0.085423 -0.049319  0.026155     12.000000
  0.128135 -0.073979  0.026155     12.000000
  0.170846 -0.098638  0.026155      6.000000
  0.085423  0.000000  0.026155     12.000000
  0.128135 -0.024660  0.026155     24.000000
  0.170846 -0.049319  0.026155     24.000000
  0.170846  0.000000  0.026155     12.000000
 -0.128135  0.172617  0.026155     12.000000
 -0.000000 -0.000000  0.052311      2.000000
  0.042712 -0.024660  0.052311     12.000000
  0.085423 -0.049319  0.052311     12.000000
  0.128135 -0.073979  0.052311     12.000000
  0.170846 -0.098638  0.052311      6.000000
  0.085423 -0.000000  0.052311     12.000000
  0.128135 -0.024660  0.052311     24.000000
  0.170846 -0.049319  0.052311     24.000000
  0.170846  0.000000  0.052311     12.000000
 -0.128135  0.172617  0.052311     12.000000
 -0.000000 -0.000000  0.078466      2.000000
  0.042712 -0.024660  0.078466     12.000000
  0.085423 -0.049319  0.078466     12.000000
  0.128135 -0.073979  0.078466     12.000000
  0.170846 -0.098638  0.078466      6.000000
  0.085423  0.000000  0.078466     12.000000
  0.128135 -0.024660  0.078466     24.000000
  0.170846 -0.049319  0.078466     24.000000
  0.170846 -0.000000  0.078466     12.000000
 -0.128135  0.172617  0.078466     12.000000
 -0.000000 -0.000000  0.104622      1.000000
  0.042712 -0.024660  0.104622      6.000000
  0.085423 -0.049319  0.104622      6.000000
  0.128135 -0.073979  0.104622      6.000000
  0.170846 -0.098638  0.104622      3.000000
  0.085423 -0.000000  0.104622      6.000000
  0.128135 -0.024660  0.104622     12.000000
  0.170846 -0.049319  0.104622     12.000000
  0.170846 -0.000000  0.104622      6.000000
 -0.128135  0.172617  0.104622      6.000000

 Subroutine IBZKPT_HF returns following result:

 Found    512 k-points in 1st BZ
 the following    512 k-points will be used (e.g. in the exchange kernel)
 Following reciprocal coordinates:   # in IRBZ
  0.000000  0.000000  0.000000    0.00195312   1 t-inv F
  0.125000  0.000000  0.000000    0.00195312   2 t-inv F
  0.250000  0.000000  0.000000    0.00195312   3 t-inv F
  0.375000  0.000000  0.000000    0.00195312   4 t-inv F
  0.500000  0.000000  0.000000    0.00195312   5 t-inv F
  0.250000  0.125000  0.000000    0.00195312   6 t-inv F
  0.375000  0.125000  0.000000    0.00195312   7 t-inv F
  0.500000  0.125000  0.000000    0.00195312   8 t-inv F
  0.500000  0.250000  0.000000    0.00195312   9 t-inv F
 -0.375000  0.250000  0.000000    0.00195312  10 t-inv F
  0.000000 -0.000000  0.125000    0.00195312  11 t-inv F
  0.125000  0.000000  0.125000    0.00195312  12 t-inv F
  0.250000  0.000000  0.125000    0.00195312  13 t-inv F
  0.375000  0.000000  0.125000    0.00195312  14 t-inv F
  0.500000  0.000000  0.125000    0.00195312  15 t-inv F
  0.250000  0.125000  0.125000    0.00195312  16 t-inv F
  0.375000  0.125000  0.125000    0.00195312  17 t-inv F
  0.500000  0.125000  0.125000    0.00195312  18 t-inv F
  0.500000  0.250000  0.125000    0.00195312  19 t-inv F
 -0.375000  0.250000  0.125000    0.00195312  20 t-inv F
  0.000000 -0.000000  0.250000    0.00195312  21 t-inv F
  0.125000 -0.000000  0.250000    0.00195312  22 t-inv F
  0.250000  0.000000  0.250000    0.00195312  23 t-inv F
  0.375000  0.000000  0.250000    0.00195312  24 t-inv F
[...]
  -0.12813460  0.17261661  0.05231078       0.023
  -0.00000000 -0.00000000  0.07846616       0.004
   0.04271153 -0.02465952  0.07846616       0.023
   0.08542307 -0.04931903  0.07846616       0.023
   0.12813460 -0.07397855  0.07846616       0.023
   0.17084613 -0.09863806  0.07846616       0.012
   0.08542307  0.00000000  0.07846616       0.023
   0.12813460 -0.02465952  0.07846616       0.047
   0.17084613 -0.04931903  0.07846616       0.047
   0.17084613 -0.00000000  0.07846616       0.023
  -0.12813460  0.17261661  0.07846616       0.023
  -0.00000000 -0.00000000  0.10462155       0.002
   0.04271153 -0.02465952  0.10462155       0.012
   0.08542307 -0.04931903  0.10462155       0.012
   0.12813460 -0.07397855  0.10462155       0.012
   0.17084613 -0.09863806  0.10462155       0.006
   0.08542307 -0.00000000  0.10462155       0.012
   0.12813460 -0.02465952  0.10462155       0.023
   0.17084613 -0.04931903  0.10462155       0.023
   0.17084613 -0.00000000  0.10462155       0.012
  -0.12813460  0.17261661  0.10462155       0.012

 k-points in reciprocal lattice and weights: Automatic kpoint scheme
   0.00000000  0.00000000  0.00000000       0.002
   0.12500000  0.00000000  0.00000000       0.012
   0.25000000  0.00000000  0.00000000       0.012
   0.37500000  0.00000000  0.00000000       0.012
   0.50000000  0.00000000  0.00000000       0.006
   0.25000000  0.12500000  0.00000000       0.012
   0.37500000  0.12500000  0.00000000       0.023
   0.50000000  0.12500000  0.00000000       0.023
   0.50000000  0.25000000  0.00000000       0.012
  -0.37500000  0.25000000  0.00000000       0.012
   0.00000000 -0.00000000  0.12500000       0.004
   0.12500000  0.00000000  0.12500000       0.023
   0.25000000  0.00000000  0.12500000       0.023
   0.37500000  0.00000000  0.12500000       0.023
   0.50000000  0.00000000  0.12500000       0.012
   0.25000000  0.12500000  0.12500000       0.023
   0.37500000  0.12500000  0.12500000       0.047
   0.50000000  0.12500000  0.12500000       0.047
   0.50000000  0.25000000  0.12500000       0.023
  -0.37500000  0.25000000  0.12500000       0.023
   0.00000000 -0.00000000  0.25000000       0.004
   0.12500000 -0.00000000  0.25000000       0.023
   0.25000000  0.00000000  0.25000000       0.023
   0.37500000  0.00000000  0.25000000       0.023
   0.50000000  0.00000000  0.25000000       0.012
   0.25000000  0.12500000  0.25000000       0.023
   0.37500000  0.12500000  0.25000000       0.047
   0.50000000  0.12500000  0.25000000       0.047
   0.50000000  0.25000000  0.25000000       0.023
  -0.37500000  0.25000000  0.25000000       0.023
   0.00000000 -0.00000000  0.37500000       0.004
   0.12500000  0.00000000  0.37500000       0.023
   0.25000000  0.00000000  0.37500000       0.023
   0.37500000  0.00000000  0.37500000       0.023
   0.50000000  0.00000000  0.37500000       0.012
   0.25000000  0.12500000  0.37500000       0.023
   0.37500000  0.12500000  0.37500000       0.047
   0.50000000  0.12500000  0.37500000       0.047
   0.50000000  0.25000000  0.37500000       0.023
  -0.37500000  0.25000000  0.37500000       0.023
   0.00000000 -0.00000000  0.50000000       0.002
   0.12500000  0.00000000  0.50000000       0.012
   0.25000000 -0.00000000  0.50000000       0.012
   0.37500000  0.00000000  0.50000000       0.012
   0.50000000  0.00000000  0.50000000       0.006
   0.25000000  0.12500000  0.50000000       0.012
   0.37500000  0.12500000  0.50000000       0.023
   0.50000000  0.12500000  0.50000000       0.023
   0.50000000  0.25000000  0.50000000       0.012
  -0.37500000  0.25000000  0.50000000       0.012

 position of ions in fractional coordinates (direct lattice)
   0.00000000  0.00000000  0.00000000
   0.33333333  0.33333333  0.50000000

 position of ions in cartesian coordinates  (Angst):
   0.00000000  0.00000000  0.00000000
   1.46330500  0.84483954  2.38956500

 k-point     1 :   0.0000 0.0000 0.0000  plane waves:    1237
 k-point     2 :   0.1250 0.0000 0.0000  plane waves:    1241
 k-point     3 :   0.2500 0.0000 0.0000  plane waves:    1250
 k-point     4 :   0.3750 0.0000 0.0000  plane waves:    1250
 k-point     5 :   0.5000 0.0000 0.0000  plane waves:    1244
 k-point     6 :   0.2500 0.1250 0.0000  plane waves:    1252
 k-point     7 :   0.3750 0.1250 0.0000  plane waves:    1249
 k-point     8 :   0.5000 0.1250 0.0000  plane waves:    1263
 k-point     9 :   0.5000 0.2500 0.0000  plane waves:    1252
 k-point    10 :  -0.3750 0.2500 0.0000  plane waves:    1262
 k-point    11 :   0.0000-0.0000 0.1250  plane waves:    1261
 k-point    12 :   0.1250 0.0000 0.1250  plane waves:    1242
 k-point    13 :   0.2500 0.0000 0.1250  plane waves:    1244
 k-point    14 :   0.3750 0.0000 0.1250  plane waves:    1255
 k-point    15 :   0.5000 0.0000 0.1250  plane waves:    1252
 k-point    16 :   0.2500 0.1250 0.1250  plane waves:    1243
 k-point    17 :   0.3750 0.1250 0.1250  plane waves:    1256
 k-point    18 :   0.5000 0.1250 0.1250  plane waves:    1256
 k-point    19 :   0.5000 0.2500 0.1250  plane waves:    1254
 k-point    20 :  -0.3750 0.2500 0.1250  plane waves:    1258
 k-point    21 :   0.0000-0.0000 0.2500  plane waves:    1231
 k-point    22 :   0.1250-0.0000 0.2500  plane waves:    1235
 k-point    23 :   0.2500 0.0000 0.2500  plane waves:    1247
 k-point    24 :   0.3750 0.0000 0.2500  plane waves:    1243
 k-point    25 :   0.5000 0.0000 0.2500  plane waves:    1246
 k-point    26 :   0.2500 0.1250 0.2500  plane waves:    1244
 k-point    27 :   0.3750 0.1250 0.2500  plane waves:    1251
 k-point    28 :   0.5000 0.1250 0.2500  plane waves:    1256
 k-point    29 :   0.5000 0.2500 0.2500  plane waves:    1254
 k-point    30 :  -0.3750 0.2500 0.2500  plane waves:    1256
 k-point    31 :   0.0000-0.0000 0.3750  plane waves:    1220
 k-point    32 :   0.1250 0.0000 0.3750  plane waves:    1233
 k-point    33 :   0.2500 0.0000 0.3750  plane waves:    1244
 k-point    34 :   0.3750 0.0000 0.3750  plane waves:    1246
 k-point    35 :   0.5000 0.0000 0.3750  plane waves:    1262
 k-point    36 :   0.2500 0.1250 0.3750  plane waves:    1242
 k-point    37 :   0.3750 0.1250 0.3750  plane waves:    1252
 k-point    38 :   0.5000 0.1250 0.3750  plane waves:    1251
 k-point    39 :   0.5000 0.2500 0.3750  plane waves:    1251
 k-point    40 :  -0.3750 0.2500 0.3750  plane waves:    1267
 k-point    41 :   0.0000-0.0000 0.5000  plane waves:    1208
 k-point    42 :   0.1250 0.0000 0.5000  plane waves:    1234
 k-point    43 :   0.2500-0.0000 0.5000  plane waves:    1248
 k-point    44 :   0.3750 0.0000 0.5000  plane waves:    1248
 k-point    45 :   0.5000 0.0000 0.5000  plane waves:    1260
 k-point    46 :   0.2500 0.1250 0.5000  plane waves:    1248
 k-point    47 :   0.3750 0.1250 0.5000  plane waves:    1250
 k-point    48 :   0.5000 0.1250 0.5000  plane waves:    1258
 k-point    49 :   0.5000 0.2500 0.5000  plane waves:    1252
 k-point    50 :  -0.3750 0.2500 0.5000  plane waves:    1272

 maximum and minimum number of plane-waves per node :      1272     1208

 maximum number of plane-waves:      1272
 maximum index in each direction:
   IXMAX=    6   IYMAX=    5   IZMAX=    9
   IXMIN=   -6   IYMIN=   -6   IZMIN=  -10

 serial   3D FFT for wavefunctions
 parallel 3D FFT for charge:
    minimum data exchange during FFTs selected (reduces bandwidth)

 Broyden mixing: mesh for mixing (old mesh)
   NGX = 11   NGY = 11   NGZ = 19
  (NGX  = 36   NGY  = 36   NGZ  = 60)
  gives a total of   2299 points

 charge density for first step will be calculated from the start-wavefunctions

 Maximum index for augmentation-charges          137 (set IRDMAX)

 initial charge from wavefunction
 First call to EWALD:  gamma=   0.540
 Maximum number of real-space cells 3x 3x 2
 Maximum number of reciprocal cells 3x 3x 4

--------------------------------------- Ionic step        1  -------------------------------------------

--------------------------------------- Iteration      1(   1)  ---------------------------------------

 eigenvalue-minimisations  :  4800
 total energy-change (2. order) :-0.2322694E-01  (-0.1019042E-05)
 number of electron       4.0000024 magnetization
 augmentation part        0.4579699 magnetization

 Broyden mixing:
  rms(total) = 0.13314E-03    rms(broyden)= 0.12843E-03
  rms(prec ) = 0.19837E-03
  weight for this iteration     100.00

 Free energy of the ion-electron system (eV)
  alpha Z        PSCENC =         1.08950986
  Ewald energy   TEWEN  =       -63.80363432
  -Hartree energ DENC   =       -49.17588726
  -exchange      EXHF   =         0.00000000
  -V(xc)+E(xc)   XCENC  =        15.62831050
  PAW double counting   =        92.40566785      -94.24656678
  entropy T*S    EENTRO =        -0.00000000
  eigenvalues    EBANDS =       -59.36256392
  atomic energy  EATOM  =       157.44193714
  Solvation  Ediel_sol  =         0.00000000
  free energy    TOTEN  =        -0.02322694 eV

  energy without entropy =       -0.02322694  energy(sigma->0) =       -0.02322694

--------------------------------------- Iteration      1(   2)  ---------------------------------------

 eigenvalue-minimisations  :  3600
 total energy-change (2. order) : 0.1480657E-08  (-0.3295101E-08)
 number of electron       4.0000024 magnetization
 augmentation part        0.4579699 magnetization

 Free energy of the ion-electron system (eV)
  alpha Z        PSCENC =         1.08950986
  Ewald energy   TEWEN  =       -63.80363432
  -Hartree energ DENC   =       -49.17711070
  -exchange      EXHF   =         0.00000000
  -V(xc)+E(xc)   XCENC  =        15.62849625
  PAW double counting   =        92.40803282      -94.24900375
  entropy T*S    EENTRO =        -0.00000000
  eigenvalues    EBANDS =       -59.36145422
  atomic energy  EATOM  =       157.44193714
  Solvation  Ediel_sol  =         0.00000000
  free energy    TOTEN  =        -0.02322693 eV

  energy without entropy =       -0.02322693  energy(sigma->0) =       -0.02322693

 average (electrostatic) potential at core
  the test charge radii are     0.5166
  (the norm of the test charge is              1.0000)
       1 -54.9723       2 -54.9723

 E-fermi : -14.1508     XC(G=0):  -5.0689     alpha+bet : -0.9189

 val. band max:      -14.5831983602   @ k =   0.5000   0.2500   0.0000
 cond. band min:       2.8681116774   @ k =   0.0000  -0.0000   0.3750
 fundamental gap:     17.4513100375
 Fermi energy:       -14.1507641462

 k-point     1 :       0.0000    0.0000    0.0000
  band No.  band energies     occupation
      1     -15.6149      2.00000
      2     -14.8176      2.00000
      3       2.8879      0.00000
      4       3.0148      0.00000
      5       9.1572      0.00000
      6      17.1688      0.00000
      7      17.1688      0.00000
      8      18.5671      0.00000
      9      18.5672      0.00000
     10      19.6490      0.00000
     11      21.2854      0.00000
     12      23.1345      0.00000
     13      23.1347      0.00000
     14      24.0906      0.00000
     15      24.6632      0.00000
     16      25.1494      0.00000
     17      25.1497      0.00000
     18      26.1785      0.00000
     19      26.1785      0.00000
     20      26.2035      0.00000
     21      27.0425      0.00000
     22      27.0745      0.00000
     23      27.0745      0.00000
     24      34.9081      0.00000
     25      41.2461      0.00000
     26      43.0137      0.00000
     27      43.8741      0.00000
     28      43.8742      0.00000
     29      44.5286      0.00000
     30      44.5286      0.00000
     31      45.6722      0.00000
     32      45.6724      0.00000
     33      45.7808      0.00000
     34      45.8830      0.00000
     35      45.8831      0.00000
     36      54.3525      0.00000
     37      54.6371      0.00000
     38      56.1076      0.00000
     39      61.5231      0.00000
     40      63.5548      0.00000
     41      63.5549      0.00000
     42      65.6037      0.00000
     43      65.6043      0.00000
     44      65.8400      0.00000
     45      67.8296      0.00000
     46      67.8298      0.00000
     47      70.6708      0.00000
     48      70.9327      0.00000

[...]

 k-point    50 :      -0.3750    0.2500    0.5000
  band No.  band energies     occupation
      1     -14.6523      2.00000
      2     -14.6523      2.00000
      3       4.7477      0.00000
      4       4.7479      0.00000
      5       6.6903      0.00000
      6       6.6905      0.00000
      7      12.6748      0.00000
      8      12.6751      0.00000
      9      16.2753      0.00000
     10      16.2756      0.00000
     11      19.6337      0.00000
     12      19.6340      0.00000
     13      23.0787      0.00000
     14      23.0791      0.00000
     15      27.2488      0.00000
     16      27.2491      0.00000
     17      29.6812      0.00000
     18      29.6814      0.00000
     19      34.1383      0.00000
     20      34.1386      0.00000
     21      38.5691      0.00000
     22      38.5692      0.00000
     23      41.2255      0.00000
     24      41.2257      0.00000
     25      43.9370      0.00000
     26      43.9371      0.00000
     27      44.6226      0.00000
     28      44.6228      0.00000
     29      45.5998      0.00000
     30      45.5999      0.00000
     31      46.4721      0.00000
     32      46.4725      0.00000
     33      46.9000      0.00000
     34      46.9005      0.00000
     35      50.8149      0.00000
     36      50.8155      0.00000
     37      50.9396      0.00000
     38      50.9398      0.00000
     39      53.2208      0.00000
     40      53.2208      0.00000
     41      57.7673      0.00000
     42      57.7675      0.00000
     43      58.6030      0.00000
     44      58.6036      0.00000
     45      60.5746      0.00000
     46      60.5749      0.00000
     47      62.8493      0.00000
     48      62.8495      0.00000

 soft charge-density along one line, spin component           1
         0         1         2         3         4         5         6         7         8         9
 total charge-density along one line

------------------------ aborting loop because EDIFF is reached ----------------------------------------

  FORCE on cell =-STRESS in cart. coord.  units (eV):
  Direction    XX          YY          ZZ          XY          YZ          ZX
  Alpha Z     1.08951     1.08951     1.08951
  Ewald     -21.28244   -21.28244   -21.23880    -0.00000     0.00000     0.00000
  Hartree    16.38032    16.38032    16.41811    -0.00000     0.00000     0.00000
  E(xc)     -17.81937   -17.81941   -17.81959     0.00004     0.00001     0.00003
  Local     -21.13914   -21.13919   -21.22005     0.00004    -0.00000    -0.00000
  n-local   -27.54200   -27.59555   -27.56802    -0.02555     0.00008    -0.00092
  augment     4.84134     4.84108     4.84124     0.00023    -0.00001    -0.00001
  Kinetic    66.66987    64.25773    65.46498    -1.12705     0.00590    -0.02174
  Fock        0.00000     0.00000     0.00000     0.00000     0.00000     0.00000
  Total      -0.03493    -0.03493    -0.03263    -0.00000    -0.00000    -0.00000
  in kB      -1.57887    -1.57887    -1.47483    -0.00000    -0.00000    -0.00000

 VOLUME and BASIS-vectors are now :
  energy-cutoff  :      622.56
  volume of cell :       35.45
      direct lattice vectors                 reciprocal lattice vectors
     2.926610000  0.000000000  0.000000000     0.341692265 -0.197276121  0.000000000
     1.463305000  2.534518607  0.000000000     0.000000000  0.394552242  0.000000000
     0.000000000  0.000000000  4.779130000    -0.000000000 -0.000000000  0.209243105

  length of vectors
     2.926610000  2.926610000  4.779130000     0.394552242  0.394552242  0.209243105

 FORCES acting on ions
    electron-ion (+dipol)            ewald-force                    non-local-force                 convergence-correction
   -.406E-08 -.234E-08 -.495E-08   0.355E-13 0.212E-13 -.993E-15   -.131E-19 0.494E-20 0.136E-21   0.495E-08 0.286E-08 0.308E-12
   0.406E-08 0.234E-08 0.495E-08   -.361E-13 -.214E-13 0.994E-15   0.575E-20 -.297E-19 -.764E-21   -.495E-08 -.286E-08 -.310E-12
   -.344E-11 -.192E-11 -.101E-12   -.541E-15 -.146E-15 0.107E-17   -.737E-20 -.247E-19 -.628E-21   -.631E-15 0.211E-14 -.174E-14

 POSITION                                       TOTAL-FORCE (eV/Angst)
      0.00000      0.00000      0.00000        -0.000000     -0.000000      0.000000
      1.46331      0.84484      2.38957         0.000000      0.000000     -0.000000
    total drift:                               -0.000000     -0.000000     -0.000000

  FREE ENERGIE OF THE ION-ELECTRON SYSTEM (eV)
  free  energy   TOTEN  =        -0.02322693 eV

  energy  without entropy=       -0.02322693  energy(sigma->0) =       -0.02322693

 writing wavefunctions