 vasp.6.4.3 19Mar24 (build Jun 26 2024 13:02:28) complex

 executed on             LinuxIFC date 2025.08.08  18:31:47

 INCAR:
   ENCUT = 324.7972
   IBRION = -1
   ISMEAR = 0
   ISYM = 2
   LCHARG = True
   LWAVE = True
   SIGMA = 0.05
   SYSTEM = Ag

 POTCAR:  PAW_PBE Ag 02Apr2005
|           W    W    AA    RRRRR   N    N  II  N    N   GGGG   !!!           |
|           W    W   A  A   R    R  NN   N  II  NN   N  G    G  !!!           |
|           W    W  A    A  R    R  N N  N  II  N N  N  G       !!!           |
|           W WW W  AAAAAA  RRRRR   N  N N  II  N  N N  G  GGG   !            |
|           WW  WW  A    A  R   R   N   NN  II  N   NN  G    G                |
|           W    W  A    A  R    R  N    N  II  N    N   GGGG   !!!           |
|     For optimal performance we recommend to set                             |
|       NCORE = 2 up to number-of-cores-per-socket                            |
|     This setting can greatly improve the performance of VASP for DFT.       |
|     The default, NCORE=1 might be grossly inefficient on modern             |
|     multi-core architectures or massively parallel machines. Do your        |
|     Unfortunately you need to use the default for GW and RPA                |
|     calculations (for HF NCORE is supported but not extensively tested      |
|     yet).                                                                   |

 POTCAR:  PAW_PBE Ag 02Apr2005
   VRHFIN =Ag : s1 d10

   TITEL  = PAW_PBE Ag 02Apr2005
   POMASS =  107.868; ZVAL   =   11.000    mass and valenz
   ENMAX  =  249.844; ENMIN  =  187.383 eV

PAW_PBE Ag 02Apr2005                    :

 POSCAR: Ag4
  positions in direct lattice

 exchange-correlation table for PE
   RHO(1)=    0.500       N(1)  =     2000
   RHO(2)=  100.500       N(2)  =     4000

 ion  position               nearest neighbor table
   1  0.000  0.000  0.000-   2 2.94   3 2.94   2 2.94   3 2.94   2 2.94   4 2.94   2 2.94   3 2.94
                             4 2.94   3 2.94   4 2.94   4 2.94
   2  0.000  0.500  0.500-   1 2.94   4 2.94   1 2.94   4 2.94   1 2.94   3 2.94   1 2.94   3 2.94
                             4 2.94   4 2.94   3 2.94   3 2.94
   3  0.500  0.000  0.500-   1 2.94   4 2.94   1 2.94   4 2.94   2 2.94   4 2.94   4 2.94   1 2.94
                             2 2.94   1 2.94   2 2.94   2 2.94
   4  0.500  0.500  0.000-   2 2.94   3 2.94   2 2.94   3 2.94   1 2.94   3 2.94   3 2.94   1 2.94
                             2 2.94   2 2.94   1 2.94   1 2.94

  LATTYP: Found a simple cubic cell.
 ALAT       =     4.1642400000

  Lattice vectors:

 A1 = (   4.1642400000,   0.0000000000,   0.0000000000)
 A2 = (   0.0000000000,   4.1642400000,   0.0000000000)
 A3 = (   0.0000000000,   0.0000000000,   4.1642400000)

Analysis of symmetry for initial positions (statically):
 Subroutine PRICEL returns following result:

  LATTYP: Found a face centered cubic cell.
 ALAT       =     4.1642400000

[...]

   4 primitive cells build up your supercell.

 Routine SETGRP: Setting up the symmetry group for a
 simple cubic supercell.

 Subroutine GETGRP returns: Found 48 space group operations
 (whereof 48 operations were pure point group operations)
 out of a pool of 48 trial point group operations.

The static configuration has the point symmetry O_h .

Analysis of symmetry for dynamics (positions and initial velocities):
 Subroutine PRICEL returns following result:

  LATTYP: Found a face centered cubic cell.
 ALAT       =     4.1642400000

  Lattice vectors:

 A1 = (   2.0821200000,  -2.0821200000,   0.0000000000)
 A2 = (   2.0821200000,   0.0000000000,   2.0821200000)
 A3 = (   0.0000000000,  -2.0821200000,   2.0821200000)

   4 primitive cells build up your supercell.

 Routine SETGRP: Setting up the symmetry group for a
 simple cubic supercell.

 Subroutine GETGRP returns: Found 48 space group operations
 (whereof 48 operations were pure point group operations)
 out of a pool of 48 trial point group operations.

The dynamic configuration has the point symmetry O_h .

 Subroutine INISYM returns: Found 48 space group operations
 (whereof 48 operations are pure point group operations),
 and found     4 'primitive' translations

                                     Primitive cell

  volume of cell :      18.0529

  direct lattice vectors                    reciprocal lattice vectors
     2.082120000 -2.082120000  0.000000000     0.240139857 -0.240139857 -0.240139857
     2.082120000  0.000000000  2.082120000     0.240139857  0.240139857  0.240139857
     0.000000000 -2.082120000  2.082120000    -0.240139857 -0.240139857  0.240139857

  length of vectors
     2.944562342  2.944562342  2.944562342     0.415934434  0.415934434  0.415934434

  position of ions in fractional coordinates (direct lattice)
     0.000000000  0.000000000  0.000000000

  ion indices of the primitive-cell ions
   primitive index   ion index
                 1           1

 KPOINTS: Automatic kpoint scheme

Automatic generation of k-mesh.
 Grid dimensions read from file:
 generate k-points for:   12   12   12

 Generating k-lattice:

  Cartesian coordinates                     Fractional coordinates (reciprocal lattice)
     0.020011655 -0.000000000  0.000000000     0.083333333 -0.000000000  0.000000000
     0.000000000  0.020011655  0.000000000     0.000000000  0.083333333  0.000000000
    -0.000000000 -0.000000000  0.020011655    -0.000000000 -0.000000000  0.083333333

  Length of vectors
     0.020011655  0.020011655  0.020011655

  Shift w.r.t. Gamma in fractional coordinates (k-lattice)
     0.000000000  0.000000000  0.000000000

 Subroutine IBZKPT returns following result:

 Found     84 irreducible k-points:

 Following reciprocal coordinates:
            Coordinates               Weight
  0.000000  0.000000  0.000000      1.000000
  0.083333  0.000000  0.000000      6.000000
  0.166667  0.000000  0.000000      6.000000
  0.250000  0.000000  0.000000      6.000000
  0.333333  0.000000  0.000000      6.000000
  0.416667 -0.000000  0.000000      6.000000
  0.500000  0.000000  0.000000      3.000000
  0.083333  0.083333  0.000000     12.000000
  0.166667  0.083333  0.000000     24.000000
  0.250000  0.083333  0.000000     24.000000
  0.333333  0.083333  0.000000     24.000000
  0.416667  0.083333  0.000000     24.000000
  0.500000  0.083333  0.000000     12.000000
  0.166667  0.166667  0.000000     12.000000
  0.250000  0.166667  0.000000     24.000000
  0.333333  0.166667  0.000000     24.000000
  0.416667  0.166667  0.000000     24.000000
  0.500000  0.166667  0.000000     12.000000
  0.250000  0.250000  0.000000     12.000000
  0.333333  0.250000  0.000000     24.000000
  0.416667  0.250000  0.000000     24.000000
  0.500000  0.250000  0.000000     12.000000
  0.333333  0.333333  0.000000     12.000000
  0.416667  0.333333  0.000000     24.000000
  0.500000  0.333333  0.000000     12.000000
  0.416667  0.416667  0.000000     12.000000
  0.500000  0.416667  0.000000     12.000000
  0.500000  0.500000  0.000000      3.000000
  0.083333  0.083333  0.083333      8.000000
  0.166667  0.083333  0.083333     24.000000
  0.250000  0.083333  0.083333     24.000000
  0.333333  0.083333  0.083333     24.000000
  0.416667  0.083333  0.083333     24.000000
  0.500000  0.083333  0.083333     12.000000
  0.166667  0.166667  0.083333     24.000000
  0.250000  0.166667  0.083333     48.000000
  0.333333  0.166667  0.083333     48.000000
  0.416667  0.166667  0.083333     48.000000
  0.500000  0.166667  0.083333     24.000000
  0.250000  0.250000  0.083333     24.000000
  0.333333  0.250000  0.083333     48.000000
  0.416667  0.250000  0.083333     48.000000
  0.500000  0.250000  0.083333     24.000000
  0.333333  0.333333  0.083333     24.000000
  0.416667  0.333333  0.083333     48.000000
  0.500000  0.333333  0.083333     24.000000
  0.416667  0.416667  0.083333     24.000000
  0.500000  0.416667  0.083333     24.000000
  0.500000  0.500000  0.083333      6.000000
  0.166667  0.166667  0.166667      8.000000
  0.250000  0.166667  0.166667     24.000000
  0.333333  0.166667  0.166667     24.000000
  0.416667  0.166667  0.166667     24.000000
  0.500000  0.166667  0.166667     12.000000
  0.250000  0.250000  0.166667     24.000000
  0.333333  0.250000  0.166667     48.000000
  0.416667  0.250000  0.166667     48.000000
  0.500000  0.250000  0.166667     24.000000
  0.333333  0.333333  0.166667     24.000000
  0.416667  0.333333  0.166667     48.000000
[...]
  0.416667  0.333333  0.250000     48.000000
  0.500000  0.333333  0.250000     24.000000
  0.416667  0.416667  0.250000     24.000000
  0.500000  0.416667  0.250000     24.000000
  0.500000  0.500000  0.250000      6.000000
  0.333333  0.333333  0.333333      8.000000
  0.416667  0.333333  0.333333     24.000000
  0.500000  0.333333  0.333333     12.000000
  0.416667  0.416667  0.333333     24.000000
  0.500000  0.416667  0.333333     24.000000
  0.500000  0.500000  0.333333      6.000000
  0.416667  0.416667  0.416667      8.000000
  0.500000  0.416667  0.416667     12.000000
  0.500000  0.500000  0.416667      6.000000
  0.500000  0.500000  0.500000      1.000000

 Following cartesian coordinates:
            Coordinates               Weight
  0.000000  0.000000  0.000000      1.000000
  0.020012 -0.000000  0.000000      6.000000
  0.040023 -0.000000  0.000000      6.000000
  0.060035 -0.000000  0.000000      6.000000
  0.080047 -0.000000  0.000000      6.000000
  0.100058 -0.000000  0.000000      6.000000
  0.120070 -0.000000  0.000000      3.000000
  0.020012  0.020012  0.000000     12.000000
  0.040023  0.020012  0.000000     24.000000
  0.060035  0.020012  0.000000     24.000000
  0.080047  0.020012  0.000000     24.000000
  0.100058  0.020012  0.000000     24.000000
  0.120070  0.020012  0.000000     12.000000
  0.040023  0.040023  0.000000     12.000000
  0.060035  0.040023  0.000000     24.000000
  0.080047  0.040023  0.000000     24.000000
  0.100058  0.040023  0.000000     24.000000
  0.120070  0.040023  0.000000     12.000000
  0.060035  0.060035  0.000000     12.000000
  0.080047  0.060035  0.000000     24.000000
  0.100058  0.060035  0.000000     24.000000
  0.120070  0.060035  0.000000     12.000000
  0.080047  0.080047  0.000000     12.000000
  0.100058  0.080047  0.000000     24.000000
  0.120070  0.080047  0.000000     12.000000
  0.100058  0.100058  0.000000     12.000000
  0.120070  0.100058  0.000000     12.000000
  0.120070  0.120070  0.000000      3.000000
  0.020012  0.020012  0.020012      8.000000
  0.040023  0.020012  0.020012     24.000000
  0.060035  0.020012  0.020012     24.000000
  0.080047  0.020012  0.020012     24.000000
  0.100058  0.020012  0.020012     24.000000
  0.120070  0.020012  0.020012     12.000000
  0.040023  0.040023  0.020012     24.000000
  0.060035  0.040023  0.020012     48.000000
  0.080047  0.040023  0.020012     48.000000
  0.100058  0.040023  0.020012     48.000000
  0.120070  0.040023  0.020012     24.000000
  0.060035  0.060035  0.020012     24.000000
  0.080047  0.060035  0.020012     48.000000
  0.100058  0.060035  0.020012     48.000000
  0.120070  0.060035  0.020012     24.000000
[...]
   0.41666667  0.41666667  0.08333333       0.014
   0.50000000  0.41666667  0.08333333       0.014
   0.50000000  0.50000000  0.08333333       0.003
   0.16666667  0.16666667  0.16666667       0.005
   0.25000000  0.16666667  0.16666667       0.014
   0.33333333  0.16666667  0.16666667       0.014
   0.41666667  0.16666667  0.16666667       0.014
   0.50000000  0.16666667  0.16666667       0.007
   0.25000000  0.25000000  0.16666667       0.014
   0.33333333  0.25000000  0.16666667       0.028
   0.41666667  0.25000000  0.16666667       0.028
   0.50000000  0.25000000  0.16666667       0.014
   0.33333333  0.33333333  0.16666667       0.014
   0.41666667  0.33333333  0.16666667       0.028
[...]
   0.41666667  0.33333333  0.25000000       0.028
   0.50000000  0.33333333  0.25000000       0.014
   0.41666667  0.41666667  0.25000000       0.014
   0.50000000  0.41666667  0.25000000       0.014
   0.50000000  0.50000000  0.25000000       0.003
   0.33333333  0.33333333  0.33333333       0.005
   0.41666667  0.33333333  0.33333333       0.014
   0.50000000  0.33333333  0.33333333       0.007
   0.41666667  0.41666667  0.33333333       0.014
   0.50000000  0.41666667  0.33333333       0.014
   0.50000000  0.50000000  0.33333333       0.003
   0.41666667  0.41666667  0.41666667       0.005
   0.50000000  0.41666667  0.41666667       0.007
   0.50000000  0.50000000  0.41666667       0.003
   0.50000000  0.50000000  0.50000000       0.001

 position of ions in fractional coordinates (direct lattice)
   0.00000000  0.00000000  0.00000000
   0.00000000  0.50000000  0.50000000
   0.50000000  0.00000000  0.50000000
   0.50000000  0.50000000  0.00000000

 position of ions in cartesian coordinates  (Angst):
   0.00000000  0.00000000  0.00000000
   0.00000000  2.08212000  2.08212000
   2.08212000  0.00000000  2.08212000
   2.08212000  2.08212000  0.00000000

 k-point     1 :   0.0000 0.0000 0.0000  plane waves:     949
 k-point     2 :   0.0833 0.0000 0.0000  plane waves:     957
 k-point     3 :   0.1667 0.0000 0.0000  plane waves:     972
 k-point     4 :   0.2500 0.0000 0.0000  plane waves:     956
 k-point     5 :   0.3333 0.0000 0.0000  plane waves:     972
 k-point     6 :   0.4167-0.0000 0.0000  plane waves:     956
 k-point     7 :   0.5000 0.0000 0.0000  plane waves:     972
 k-point     8 :   0.0833 0.0833 0.0000  plane waves:     961
 k-point     9 :   0.1667 0.0833 0.0000  plane waves:     962
 k-point    10 :   0.2500 0.0833 0.0000  plane waves:     958
 k-point    11 :   0.3333 0.0833 0.0000  plane waves:     956
 k-point    12 :   0.4167 0.0833 0.0000  plane waves:     960
 k-point    13 :   0.5000 0.0833 0.0000  plane waves:     960
 k-point    14 :   0.1667 0.1667 0.0000  plane waves:     961
 k-point    15 :   0.2500 0.1667 0.0000  plane waves:     962
 k-point    16 :   0.3333 0.1667 0.0000  plane waves:     944
 k-point    17 :   0.4167 0.1667 0.0000  plane waves:     954
 k-point    18 :   0.5000 0.1667 0.0000  plane waves:     956
 k-point    19 :   0.2500 0.2500 0.0000  plane waves:     959
 k-point    20 :   0.3333 0.2500 0.0000  plane waves:     956
 k-point    21 :   0.4167 0.2500 0.0000  plane waves:     957
 k-point    22 :   0.5000 0.2500 0.0000  plane waves:     956
 k-point    23 :   0.3333 0.3333 0.0000  plane waves:     946
 k-point    24 :   0.4167 0.3333 0.0000  plane waves:     953
 k-point    25 :   0.5000 0.3333 0.0000  plane waves:     958
 k-point    26 :   0.4167 0.4167 0.0000  plane waves:     960
 k-point    27 :   0.5000 0.4167 0.0000  plane waves:     972
 k-point    28 :   0.5000 0.5000 0.0000  plane waves:     952
 k-point    29 :   0.0833 0.0833 0.0833  plane waves:     964
 k-point    30 :   0.1667 0.0833 0.0833  plane waves:     959
 k-point    31 :   0.2500 0.0833 0.0833  plane waves:     957
 k-point    32 :   0.3333 0.0833 0.0833  plane waves:     954
 k-point    33 :   0.4167 0.0833 0.0833  plane waves:     954
 k-point    34 :   0.5000 0.0833 0.0833  plane waves:     956
 k-point    35 :   0.1667 0.1667 0.0833  plane waves:     956
 k-point    36 :   0.2500 0.1667 0.0833  plane waves:     959
 k-point    37 :   0.3333 0.1667 0.0833  plane waves:     952
 k-point    38 :   0.4167 0.1667 0.0833  plane waves:     954
 k-point    39 :   0.5000 0.1667 0.0833  plane waves:     952
 k-point    40 :   0.2500 0.2500 0.0833  plane waves:     956
 k-point    41 :   0.3333 0.2500 0.0833  plane waves:     958
 k-point    42 :   0.4167 0.2500 0.0833  plane waves:     956
 k-point    43 :   0.5000 0.2500 0.0833  plane waves:     958
 k-point    44 :   0.3333 0.3333 0.0833  plane waves:     961
 k-point    45 :   0.4167 0.3333 0.0833  plane waves:     955
 k-point    46 :   0.5000 0.3333 0.0833  plane waves:     962
 k-point    47 :   0.4167 0.4167 0.0833  plane waves:     962
 k-point    48 :   0.5000 0.4167 0.0833  plane waves:     970
 k-point    49 :   0.5000 0.5000 0.0833  plane waves:     968
 k-point    50 :   0.1667 0.1667 0.1667  plane waves:     961
 k-point    51 :   0.2500 0.1667 0.1667  plane waves:     954
 k-point    52 :   0.3333 0.1667 0.1667  plane waves:     953
 k-point    53 :   0.4167 0.1667 0.1667  plane waves:     959
 k-point    54 :   0.5000 0.1667 0.1667  plane waves:     950
 k-point    55 :   0.2500 0.2500 0.1667  plane waves:     957
 k-point    56 :   0.3333 0.2500 0.1667  plane waves:     964
 k-point    57 :   0.4167 0.2500 0.1667  plane waves:     959
 k-point    58 :   0.5000 0.2500 0.1667  plane waves:     952
 k-point    59 :   0.3333 0.3333 0.1667  plane waves:     966
 k-point    60 :   0.4167 0.3333 0.1667  plane waves:     962
[...]
 k-point    70 :   0.4167 0.3333 0.2500  plane waves:     968
 k-point    71 :   0.5000 0.3333 0.2500  plane waves:     970
 k-point    72 :   0.4167 0.4167 0.2500  plane waves:     970
 k-point    73 :   0.5000 0.4167 0.2500  plane waves:     970
 k-point    74 :   0.5000 0.5000 0.2500  plane waves:     968
 k-point    75 :   0.3333 0.3333 0.3333  plane waves:     961
 k-point    76 :   0.4167 0.3333 0.3333  plane waves:     966
 k-point    77 :   0.5000 0.3333 0.3333  plane waves:     958
 k-point    78 :   0.4167 0.4167 0.3333  plane waves:     969
 k-point    79 :   0.5000 0.4167 0.3333  plane waves:     972
 k-point    80 :   0.5000 0.5000 0.3333  plane waves:     964
 k-point    81 :   0.4167 0.4167 0.4167  plane waves:     967
 k-point    82 :   0.5000 0.4167 0.4167  plane waves:     962
 k-point    83 :   0.5000 0.5000 0.4167  plane waves:     960
 k-point    84 :   0.5000 0.5000 0.5000  plane waves:     968

 maximum and minimum number of plane-waves per node :       976      944

 maximum number of plane-waves:       976
 maximum index in each direction:
   IXMAX=    6   IYMAX=    6   IZMAX=    6
   IXMIN=   -6   IYMIN=   -6   IZMIN=   -6

 serial   3D FFT for wavefunctions
 parallel 3D FFT for charge:
    minimum data exchange during FFTs selected (reduces bandwidth)

 Broyden mixing: mesh for mixing (old mesh)
   NGX = 13   NGY = 13   NGZ = 13
  (NGX  = 36   NGY  = 36   NGZ  = 36)
  gives a total of   2197 points

 charge density for first step will be calculated from the start-wavefunctions

 Maximum index for augmentation-charges          293 (set IRDMAX)

 initial charge from wavefunction
 First call to EWALD:  gamma=   0.426
 Maximum number of real-space cells 3x 3x 3
 Maximum number of reciprocal cells 3x 3x 3

--------------------------------------- Ionic step        1  -------------------------------------------

--------------------------------------- Iteration      1(   1)  ---------------------------------------

 eigenvalue-minimisations  :  6048
 total energy-change (2. order) :-0.1089696E+02  (-0.3768550E-05)
 number of electron      43.9999123 magnetization
 augmentation part       21.0324919 magnetization

 Broyden mixing:
  rms(total) = 0.11321E-02    rms(broyden)= 0.11321E-02
  rms(prec ) = 0.19637E-02
  weight for this iteration     100.00

 Free energy of the ion-electron system (eV)
  alpha Z        PSCENC =       188.46335104
  Ewald energy   TEWEN  =     -3836.73644632
  -Hartree energ DENC   =      -796.48343898
  -exchange      EXHF   =         0.00000000
  -V(xc)+E(xc)   XCENC  =       -44.05635753
  PAW double counting   =      4394.91287159    -4219.94610660
  entropy T*S    EENTRO =        -0.00086456
  eigenvalues    EBANDS =       154.04872121
  atomic energy  EATOM  =      4148.90130626
  Solvation  Ediel_sol  =         0.00000000
  free energy    TOTEN  =       -10.89696388 eV

  energy without entropy =      -10.89609932  energy(sigma->0) =      -10.89653160

--------------------------------------- Iteration      1(   2)  ---------------------------------------

 eigenvalue-minimisations  :  5808
 total energy-change (2. order) : 0.9253745E-06  (-0.9480173E-06)
 number of electron      43.9999123 magnetization
 augmentation part       21.0324919 magnetization

 Free energy of the ion-electron system (eV)
  alpha Z        PSCENC =       188.46335104
  Ewald energy   TEWEN  =     -3836.73644632
  -Hartree energ DENC   =      -796.52948369
  -exchange      EXHF   =         0.00000000
  -V(xc)+E(xc)   XCENC  =       -44.05476308
  PAW double counting   =      4394.96373013    -4219.99667078
  entropy T*S    EENTRO =        -0.00086548
  eigenvalues    EBANDS =       154.09287896
  atomic energy  EATOM  =      4148.90130626
  Solvation  Ediel_sol  =         0.00000000
  free energy    TOTEN  =       -10.89696295 eV

  energy without entropy =      -10.89609747  energy(sigma->0) =      -10.89653021

 average (electrostatic) potential at core
  the test charge radii are     1.1249
  (the norm of the test charge is              1.0000)
       1 -71.3860       2 -71.3860       3 -71.3860       4 -71.3860

 E-fermi :   7.7291     XC(G=0): -11.8715     alpha+bet :-12.7146

 val. band max:        7.6486054750   @ k =   0.3333   0.3333   0.1667
 cond. band min:       7.7317045447   @ k =   0.4167   0.4167   0.4167
 fundamental gap:      0.0830990696
 Fermi energy:         7.7290841218

 k-point     1 :       0.0000    0.0000    0.0000
  band No.  band energies     occupation
      1       0.3024      2.00000
      2       1.5863      2.00000
      3       1.5863      2.00000
      4       1.5863      2.00000
      5       1.7063      2.00000
      6       1.7063      2.00000
      7       1.7063      2.00000
      8       3.0599      2.00000
      9       3.0599      2.00000
     10       3.0599      2.00000
     11       3.9957      2.00000
     12       3.9957      2.00000
     13       4.6863      2.00000
     14       4.6863      2.00000
     15       4.6863      2.00000
     16       4.9035      2.00000
     17       4.9035      2.00000
     18       4.9035      2.00000
     19       4.9035      2.00000
     20       4.9035      2.00000
     21       4.9035      2.00000
     22       9.3208      0.00000
     23       9.3208      0.00000
     24       9.3208      0.00000
     25      13.9687      0.00000
     26      13.9687      0.00000
     27      13.9687      0.00000
     28      18.0365      0.00000
     29      18.0365      0.00000
     30      18.0365      0.00000
     31      18.0365      0.00000
     32      18.0365      0.00000
     33      18.0365      0.00000
     34      23.5536      0.00000
     35      24.1826      0.00000
     36      24.1826      0.00000
     37      24.1826      0.00000
     38      24.1862      0.00000
     39      24.1862      0.00000
     40      24.1862      0.00000
     41      26.7906      0.00000
     42      26.7906      0.00000
     43      26.7906      0.00000
     44      31.4650      0.00000
     45      32.2636      0.00000
     46      32.2636      0.00000
     47      32.2636      0.00000
     48      35.9781      0.00000

[...]

 k-point    84 :       0.5000    0.5000    0.5000
  band No.  band energies     occupation
      1       1.6153      2.00000
      2       1.6153      2.00000
      3       1.6153      2.00000
      4       1.6153      2.00000
      5       3.0430      2.00000
      6       3.0430      2.00000
      7       3.0430      2.00000
      8       3.0430      2.00000
      9       3.0430      2.00000
     10       3.0430      2.00000
     11       3.0430      2.00000
     12       3.0430      2.00000
     13       4.7161      2.00000
     14       4.7161      2.00000
     15       4.7161      2.00000
     16       4.7161      2.00000
     17       4.7161      2.00000
     18       4.7161      2.00000
     19       4.7161      2.00000
     20       4.7161      2.00000
     21       7.4169      2.00000
     22       7.4169      2.00000
     23       7.4169      2.00000
     24       7.4169      2.00000
     25      10.9586      0.00000
     26      10.9586      0.00000
     27      10.9586      0.00000
     28      10.9586      0.00000
     29      22.7799      0.00000
     30      22.7799      0.00000
     31      22.7799      0.00000
     32      22.7799      0.00000
     33      24.9406      0.00000
     34      24.9406      0.00000
     35      24.9406      0.00000
     36      24.9406      0.00000
     37      24.9406      0.00000
     38      24.9406      0.00000
     39      24.9406      0.00000
     40      24.9406      0.00000
     41      29.7217      0.00000
     42      29.7217      0.00000
     43      29.7217      0.00000
     44      29.7217      0.00000
     45      29.7217      0.00000
     46      29.7217      0.00000
     47      29.7217      0.00000
     48      29.7217      0.00000

 soft charge-density along one line, spin component           1
         0         1         2         3         4         5         6         7         8         9
 total charge-density along one line

------------------------ aborting loop because EDIFF is reached ----------------------------------------

  FORCE on cell =-STRESS in cart. coord.  units (eV):
  Direction    XX          YY          ZZ          XY          YZ          ZX
  Alpha Z   188.46335   188.46335   188.46335
  Ewald   -1278.91271 -1278.91271 -1278.91271    -0.00000     0.00000     0.00000
  Hartree   265.51336   265.51336   265.51336    -0.00000    -0.00000    -0.00000
  E(xc)    -232.22452  -232.22452  -232.22452     0.00000     0.00000    -0.00000
  Local     178.67002   178.67002   178.67002     0.00000     0.00000     0.00000
  n-local   -25.73642   -39.69365   -42.65756     0.63986     4.09236     1.19650
  augment   368.30538   368.30538   368.30538    -0.00000    -0.00000     0.00000
  Kinetic   552.82980   544.29001   539.16053    -3.07850     0.45206    -1.16519
  Fock        0.00000     0.00000     0.00000     0.00000     0.00000     0.00000
  Total      -0.78755    -0.78755    -0.78755    -0.00000     0.00000    -0.00000
  in kB     -17.47363   -17.47363   -17.47363    -0.00000     0.00000    -0.00000

 VOLUME and BASIS-vectors are now :
  energy-cutoff  :      324.80
  volume of cell :       72.21
      direct lattice vectors                 reciprocal lattice vectors
     4.164240000  0.000000000  0.000000000     0.240139857 -0.000000000  0.000000000
     0.000000000  4.164240000  0.000000000     0.000000000  0.240139857  0.000000000
     0.000000000  0.000000000  4.164240000    -0.000000000 -0.000000000  0.240139857

  length of vectors
     4.164240000  4.164240000  4.164240000     0.240139857  0.240139857  0.240139857

 FORCES acting on ions
    electron-ion (+dipol)            ewald-force                    non-local-force                 convergence-correction
   -.182E-13 -.193E-13 -.487E-13   0.309E-14 -.453E-14 0.182E-14   0.645E-25 0.135E-24 0.416E-24   -.110E-13 0.135E-13 -.767E-16
   -.212E-13 0.370E-12 0.387E-12   0.360E-14 0.641E-14 0.506E-14   0.244E-24 0.629E-25 -.324E-24   -.235E-13 0.750E-14 0.244E-13
   0.390E-12 -.567E-14 -.637E-12   -.532E-14 -.551E-14 0.507E-14   -.953E-25 -.268E-24 0.254E-24   0.291E-13 0.303E-15 0.226E-13
   0.383E-12 0.368E-12 0.593E-12   -.480E-14 0.543E-14 -.866E-14   -.119E-24 -.521E-24 -.133E-24   0.251E-13 0.571E-14 -.675E-16
   0.734E-12 0.713E-12 0.295E-12   -.342E-14 0.180E-14 0.329E-14   0.950E-25 -.591E-24 0.213E-24   0.197E-13 0.270E-13 0.468E-13

 POSITION                                       TOTAL-FORCE (eV/Angst)
      0.00000      0.00000      0.00000        -0.000000     -0.000000     -0.000000
      0.00000      2.08212      2.08212         0.000000     -0.000000     -0.000000
      2.08212      0.00000      2.08212        -0.000000     -0.000000      0.000000
      2.08212      2.08212      0.00000         0.000000      0.000000      0.000000
    total drift:                                0.000000      0.000000      0.000000

  FREE ENERGIE OF THE ION-ELECTRON SYSTEM (eV)
  free  energy   TOTEN  =       -10.89696295 eV

  energy  without entropy=      -10.89609747  energy(sigma->0) =      -10.89653021

 writing wavefunctions