 vasp.6.4.3 19Mar24 (build Jun 26 2024 13:02:28) complex

 executed on             LinuxIFC date 2025.08.08  18:46:11

 INCAR:
   ENCUT = 622.5648
   IBRION = -1
   ISMEAR = 0
   ISYM = 2
   LCHARG = True
   LWAVE = True
   SIGMA = 0.05
   SYSTEM = He

 POTCAR:  PAW_PBE He 05Jan2001
|           W    W    AA    RRRRR   N    N  II  N    N   GGGG   !!!           |
|           W    W   A  A   R    R  NN   N  II  NN   N  G    G  !!!           |
|           W    W  A    A  R    R  N N  N  II  N N  N  G       !!!           |
|           W WW W  AAAAAA  RRRRR   N  N N  II  N  N N  G  GGG   !            |
|           WW  WW  A    A  R   R   N   NN  II  N   NN  G    G                |
|           W    W  A    A  R    R  N    N  II  N    N   GGGG   !!!           |
|     For optimal performance we recommend to set                             |
|       NCORE = 2 up to number-of-cores-per-socket                            |
|     This setting can greatly improve the performance of VASP for DFT.       |
|     The default, NCORE=1 might be grossly inefficient on modern             |
|     multi-core architectures or massively parallel machines. Do your        |
|     Unfortunately you need to use the default for GW and RPA                |
|     calculations (for HF NCORE is supported but not extensively tested      |
|     yet).                                                                   |

 POTCAR:  PAW_PBE He 05Jan2001
   VRHFIN =He: 1s

   TITEL  = PAW_PBE He 05Jan2001
   POMASS =    4.000; ZVAL   =    2.000    mass and valenz
   ENMAX  =  478.896; ENMIN  =  359.172 eV

PAW_PBE He 05Jan2001                    :

 POSCAR: He2
  positions in direct lattice

 exchange-correlation table for PE
   RHO(1)=    0.500       N(1)  =     2000
   RHO(2)=  100.500       N(2)  =     4000

 ion  position               nearest neighbor table
   1  0.000  0.000  0.000-
   2  0.333  0.333  0.500-

  LATTYP: Found a hexagonal cell.
 ALAT       =     2.9266100000
 C/A-ratio  =     1.6329917550

  Lattice vectors:

 A1 = (  -1.4633050000,  -2.5345186070,   0.0000000000)
 A2 = (   2.9266100000,   0.0000000000,   0.0000000000)
 A3 = (   0.0000000000,   0.0000000000,   4.7791300000)

Analysis of symmetry for initial positions (statically):
 Subroutine PRICEL returns:
 Original cell was already a primitive cell.

 Routine SETGRP: Setting up the symmetry group for a
 hexagonal supercell.

 Subroutine GETGRP returns: Found 24 space group operations
 (whereof 12 operations were pure point group operations)
 out of a pool of 24 trial point group operations.

The static configuration has the point symmetry D_3h.
 The point group associated with its full space group is D_6h.

Analysis of symmetry for dynamics (positions and initial velocities):
 Subroutine PRICEL returns:
 Original cell was already a primitive cell.

 Routine SETGRP: Setting up the symmetry group for a
 hexagonal supercell.

 Subroutine GETGRP returns: Found 24 space group operations
 (whereof 12 operations were pure point group operations)
 out of a pool of 24 trial point group operations.

The dynamic configuration has the point symmetry D_3h.
 The point group associated with its full space group is D_6h.

 Subroutine INISYM returns: Found 24 space group operations
 (whereof 12 operations are pure point group operations),
 and found     1 'primitive' translations

                                     Primitive cell

  volume of cell :      35.4494

  direct lattice vectors                    reciprocal lattice vectors
     2.926610000  0.000000000  0.000000000     0.341692265 -0.197276121  0.000000000
     1.463305000  2.534518607  0.000000000     0.000000000  0.394552242  0.000000000
     0.000000000  0.000000000  4.779130000    -0.000000000 -0.000000000  0.209243105

  length of vectors
     2.926610000  2.926610000  4.779130000     0.394552242  0.394552242  0.209243105

  position of ions in fractional coordinates (direct lattice)
     0.000000000  0.000000000  0.000000000
     0.333333333  0.333333333  0.500000000

  ion indices of the primitive-cell ions
   primitive index   ion index
                 1           1
                 2           2

 KPOINTS: Automatic kpoint scheme

Automatic generation of k-mesh.
 Grid dimensions read from file:
 generate k-points for:   12   12   12

 Generating k-lattice:

  Cartesian coordinates                     Fractional coordinates (reciprocal lattice)
     0.028474355 -0.016439677  0.000000000     0.083333333 -0.000000000  0.000000000
     0.000000000  0.032879354  0.000000000     0.000000000  0.083333333  0.000000000
    -0.000000000 -0.000000000  0.017436925     0.000000000 -0.000000000  0.083333333

  Length of vectors
     0.032879354  0.032879354  0.017436925

  Shift w.r.t. Gamma in fractional coordinates (k-lattice)
     0.000000000  0.000000000  0.000000000

 Subroutine IBZKPT returns following result:

 Found    133 irreducible k-points:

 Following reciprocal coordinates:
            Coordinates               Weight
  0.000000  0.000000  0.000000      1.000000
  0.083333 -0.000000  0.000000      6.000000
  0.166667 -0.000000  0.000000      6.000000
  0.250000  0.000000  0.000000      6.000000
  0.333333 -0.000000  0.000000      6.000000
  0.416667 -0.000000  0.000000      6.000000
  0.500000  0.000000  0.000000      3.000000
  0.166667  0.083333  0.000000      6.000000
  0.250000  0.083333  0.000000     12.000000
  0.333333  0.083333  0.000000     12.000000
  0.416667  0.083333  0.000000     12.000000
  0.500000  0.083333  0.000000     12.000000
  0.333333  0.166667  0.000000      6.000000
  0.416667  0.166667  0.000000     12.000000
  0.500000  0.166667  0.000000     12.000000
 -0.416667  0.166667  0.000000      6.000000
  0.500000  0.250000  0.000000      6.000000
 -0.416667  0.250000  0.000000     12.000000
 -0.333333  0.333333  0.000000      2.000000
  0.000000  0.000000  0.083333      2.000000
  0.083333  0.000000  0.083333     12.000000
  0.166667 -0.000000  0.083333     12.000000
  0.250000  0.000000  0.083333     12.000000
  0.333333 -0.000000  0.083333     12.000000
  0.416667 -0.000000  0.083333     12.000000
  0.500000  0.000000  0.083333      6.000000
  0.166667  0.083333  0.083333     12.000000
  0.250000  0.083333  0.083333     24.000000
  0.333333  0.083333  0.083333     24.000000
  0.416667  0.083333  0.083333     24.000000
  0.500000  0.083333  0.083333     24.000000
  0.333333  0.166667  0.083333     12.000000
  0.416667  0.166667  0.083333     24.000000
  0.500000  0.166667  0.083333     24.000000
 -0.416667  0.166667  0.083333     12.000000
  0.500000  0.250000  0.083333     12.000000
 -0.416667  0.250000  0.083333     24.000000
 -0.333333  0.333333  0.083333      4.000000
 -0.000000 -0.000000  0.166667      2.000000
  0.083333 -0.000000  0.166667     12.000000
  0.166667  0.000000  0.166667     12.000000
  0.250000  0.000000  0.166667     12.000000
  0.333333 -0.000000  0.166667     12.000000
  0.416667 -0.000000  0.166667     12.000000
  0.500000  0.000000  0.166667      6.000000
  0.166667  0.083333  0.166667     12.000000
  0.250000  0.083333  0.166667     24.000000
  0.333333  0.083333  0.166667     24.000000
  0.416667  0.083333  0.166667     24.000000
  0.500000  0.083333  0.166667     24.000000
  0.333333  0.166667  0.166667     12.000000
  0.416667  0.166667  0.166667     24.000000
  0.500000  0.166667  0.166667     24.000000
 -0.416667  0.166667  0.166667     12.000000
  0.500000  0.250000  0.166667     12.000000
 -0.416667  0.250000  0.166667     24.000000
 -0.333333  0.333333  0.166667      4.000000
  0.000000  0.000000  0.250000      2.000000
  0.083333 -0.000000  0.250000     12.000000
  0.166667 -0.000000  0.250000     12.000000
[...]
  0.333333 -0.000000  0.500000      6.000000
  0.416667  0.000000  0.500000      6.000000
  0.500000  0.000000  0.500000      3.000000
  0.166667  0.083333  0.500000      6.000000
  0.250000  0.083333  0.500000     12.000000
  0.333333  0.083333  0.500000     12.000000
  0.416667  0.083333  0.500000     12.000000
  0.500000  0.083333  0.500000     12.000000
  0.333333  0.166667  0.500000      6.000000
  0.416667  0.166667  0.500000     12.000000
  0.500000  0.166667  0.500000     12.000000
 -0.416667  0.166667  0.500000      6.000000
  0.500000  0.250000  0.500000      6.000000
 -0.416667  0.250000  0.500000     12.000000
 -0.333333  0.333333  0.500000      2.000000

 Following cartesian coordinates:
            Coordinates               Weight
  0.000000  0.000000  0.000000      1.000000
  0.028474 -0.016440  0.000000      6.000000
  0.056949 -0.032879  0.000000      6.000000
  0.085423 -0.049319  0.000000      6.000000
  0.113897 -0.065759  0.000000      6.000000
  0.142372 -0.082198  0.000000      6.000000
  0.170846 -0.098638  0.000000      3.000000
  0.056949  0.000000  0.000000      6.000000
  0.085423 -0.016440  0.000000     12.000000
  0.113897 -0.032879  0.000000     12.000000
  0.142372 -0.049319  0.000000     12.000000
  0.170846 -0.065759  0.000000     12.000000
  0.113897 -0.000000  0.000000      6.000000
  0.142372 -0.016440  0.000000     12.000000
  0.170846 -0.032879  0.000000     12.000000
 -0.142372  0.147957  0.000000      6.000000
  0.170846 -0.000000  0.000000      6.000000
 -0.142372  0.180836  0.000000     12.000000
 -0.113897  0.197276  0.000000      2.000000
 -0.000000 -0.000000  0.017437      2.000000
  0.028474 -0.016440  0.017437     12.000000
  0.056949 -0.032879  0.017437     12.000000
  0.085423 -0.049319  0.017437     12.000000
  0.113897 -0.065759  0.017437     12.000000
  0.142372 -0.082198  0.017437     12.000000
  0.170846 -0.098638  0.017437      6.000000
  0.056949  0.000000  0.017437     12.000000
  0.085423 -0.016440  0.017437     24.000000
  0.113897 -0.032879  0.017437     24.000000
  0.142372 -0.049319  0.017437     24.000000
  0.170846 -0.065759  0.017437     24.000000
  0.113897 -0.000000  0.017437     12.000000
  0.142372 -0.016440  0.017437     24.000000
  0.170846 -0.032879  0.017437     24.000000
 -0.142372  0.147957  0.017437     12.000000
  0.170846 -0.000000  0.017437     12.000000
 -0.142372  0.180836  0.017437     24.000000
 -0.113897  0.197276  0.017437      4.000000
 -0.000000 -0.000000  0.034874      2.000000
  0.028474 -0.016440  0.034874     12.000000
  0.056949 -0.032879  0.034874     12.000000
  0.085423 -0.049319  0.034874     12.000000
  0.113897 -0.065759  0.034874     12.000000
  0.142372 -0.082198  0.034874     12.000000
  0.170846 -0.098638  0.034874      6.000000
  0.056949  0.000000  0.034874     12.000000
  0.085423 -0.016440  0.034874     24.000000
  0.113897 -0.032879  0.034874     24.000000
  0.142372 -0.049319  0.034874     24.000000
  0.170846 -0.065759  0.034874     24.000000
  0.113897 -0.000000  0.034874     12.000000
  0.142372 -0.016440  0.034874     24.000000
  0.170846 -0.032879  0.034874     24.000000
 -0.142372  0.147957  0.034874     12.000000
  0.170846 -0.000000  0.034874     12.000000
 -0.142372  0.180836  0.034874     24.000000
 -0.113897  0.197276  0.034874      4.000000
 -0.000000 -0.000000  0.052311      2.000000
  0.028474 -0.016440  0.052311     12.000000
  0.056949 -0.032879  0.052311     12.000000
[...]
[...]
  -0.41666667  0.16666667  0.08333333       0.007
   0.50000000  0.25000000  0.08333333       0.007
  -0.41666667  0.25000000  0.08333333       0.014
  -0.33333333  0.33333333  0.08333333       0.002
  -0.00000000 -0.00000000  0.16666667       0.001
   0.08333333 -0.00000000  0.16666667       0.007
   0.16666667  0.00000000  0.16666667       0.007
   0.25000000  0.00000000  0.16666667       0.007
   0.33333333 -0.00000000  0.16666667       0.007
   0.41666667 -0.00000000  0.16666667       0.007
   0.50000000  0.00000000  0.16666667       0.003
   0.16666667  0.08333333  0.16666667       0.007
   0.25000000  0.08333333  0.16666667       0.014
   0.33333333  0.08333333  0.16666667       0.014
   0.41666667  0.08333333  0.16666667       0.014
   0.50000000  0.08333333  0.16666667       0.014
   0.33333333  0.16666667  0.16666667       0.007
   0.41666667  0.16666667  0.16666667       0.014
   0.50000000  0.16666667  0.16666667       0.014
  -0.41666667  0.16666667  0.16666667       0.007
   0.50000000  0.25000000  0.16666667       0.007
  -0.41666667  0.25000000  0.16666667       0.014
  -0.33333333  0.33333333  0.16666667       0.002
   0.00000000  0.00000000  0.25000000       0.001
   0.08333333 -0.00000000  0.25000000       0.007
   0.16666667 -0.00000000  0.25000000       0.007
[...]
   0.33333333 -0.00000000  0.50000000       0.003
   0.41666667  0.00000000  0.50000000       0.003
   0.50000000  0.00000000  0.50000000       0.002
   0.16666667  0.08333333  0.50000000       0.003
   0.25000000  0.08333333  0.50000000       0.007
   0.33333333  0.08333333  0.50000000       0.007
   0.41666667  0.08333333  0.50000000       0.007
   0.50000000  0.08333333  0.50000000       0.007
   0.33333333  0.16666667  0.50000000       0.003
   0.41666667  0.16666667  0.50000000       0.007
   0.50000000  0.16666667  0.50000000       0.007
  -0.41666667  0.16666667  0.50000000       0.003
   0.50000000  0.25000000  0.50000000       0.003
  -0.41666667  0.25000000  0.50000000       0.007
  -0.33333333  0.33333333  0.50000000       0.001

 position of ions in fractional coordinates (direct lattice)
   0.00000000  0.00000000  0.00000000
   0.33333333  0.33333333  0.50000000

 position of ions in cartesian coordinates  (Angst):
   0.00000000  0.00000000  0.00000000
   1.46330500  0.84483954  2.38956500

 k-point     1 :   0.0000 0.0000 0.0000  plane waves:    1237
 k-point     2 :   0.0833-0.0000 0.0000  plane waves:    1243
 k-point     3 :   0.1667-0.0000 0.0000  plane waves:    1244
 k-point     4 :   0.2500 0.0000 0.0000  plane waves:    1250
 k-point     5 :   0.3333-0.0000 0.0000  plane waves:    1254
 k-point     6 :   0.4167-0.0000 0.0000  plane waves:    1250
 k-point     7 :   0.5000 0.0000 0.0000  plane waves:    1244
 k-point     8 :   0.1667 0.0833 0.0000  plane waves:    1250
 k-point     9 :   0.2500 0.0833 0.0000  plane waves:    1247
 k-point    10 :   0.3333 0.0833 0.0000  plane waves:    1248
 k-point    11 :   0.4167 0.0833 0.0000  plane waves:    1252
 k-point    12 :   0.5000 0.0833 0.0000  plane waves:    1262
 k-point    13 :   0.3333 0.1667 0.0000  plane waves:    1254
 k-point    14 :   0.4167 0.1667 0.0000  plane waves:    1247
 k-point    15 :   0.5000 0.1667 0.0000  plane waves:    1252
 k-point    16 :  -0.4167 0.1667 0.0000  plane waves:    1258
 k-point    17 :   0.5000 0.2500 0.0000  plane waves:    1252
 k-point    18 :  -0.4167 0.2500 0.0000  plane waves:    1247
 k-point    19 :  -0.3333 0.3333 0.0000  plane waves:    1254
 k-point    20 :   0.0000 0.0000 0.0833  plane waves:    1255
 k-point    21 :   0.0833 0.0000 0.0833  plane waves:    1247
 k-point    22 :   0.1667-0.0000 0.0833  plane waves:    1240
 k-point    23 :   0.2500 0.0000 0.0833  plane waves:    1248
 k-point    24 :   0.3333-0.0000 0.0833  plane waves:    1254
 k-point    25 :   0.4167-0.0000 0.0833  plane waves:    1252
 k-point    26 :   0.5000 0.0000 0.0833  plane waves:    1248
 k-point    27 :   0.1667 0.0833 0.0833  plane waves:    1243
 k-point    28 :   0.2500 0.0833 0.0833  plane waves:    1248
 k-point    29 :   0.3333 0.0833 0.0833  plane waves:    1253
 k-point    30 :   0.4167 0.0833 0.0833  plane waves:    1250
 k-point    31 :   0.5000 0.0833 0.0833  plane waves:    1252
 k-point    32 :   0.3333 0.1667 0.0833  plane waves:    1256
 k-point    33 :   0.4167 0.1667 0.0833  plane waves:    1253
 k-point    34 :   0.5000 0.1667 0.0833  plane waves:    1252
 k-point    35 :  -0.4167 0.1667 0.0833  plane waves:    1258
 k-point    36 :   0.5000 0.2500 0.0833  plane waves:    1254
 k-point    37 :  -0.4167 0.2500 0.0833  plane waves:    1252
 k-point    38 :  -0.3333 0.3333 0.0833  plane waves:    1248
 k-point    39 :  -0.0000-0.0000 0.1667  plane waves:    1249
 k-point    40 :   0.0833-0.0000 0.1667  plane waves:    1242
 k-point    41 :   0.1667 0.0000 0.1667  plane waves:    1236
 k-point    42 :   0.2500 0.0000 0.1667  plane waves:    1241
 k-point    43 :   0.3333-0.0000 0.1667  plane waves:    1246
 k-point    44 :   0.4167-0.0000 0.1667  plane waves:    1248
 k-point    45 :   0.5000 0.0000 0.1667  plane waves:    1250
 k-point    46 :   0.1667 0.0833 0.1667  plane waves:    1241
 k-point    47 :   0.2500 0.0833 0.1667  plane waves:    1241
 k-point    48 :   0.3333 0.0833 0.1667  plane waves:    1255
 k-point    49 :   0.4167 0.0833 0.1667  plane waves:    1247
 k-point    50 :   0.5000 0.0833 0.1667  plane waves:    1253
 k-point    51 :   0.3333 0.1667 0.1667  plane waves:    1252
 k-point    52 :   0.4167 0.1667 0.1667  plane waves:    1253
 k-point    53 :   0.5000 0.1667 0.1667  plane waves:    1256
 k-point    54 :  -0.4167 0.1667 0.1667  plane waves:    1256
 k-point    55 :   0.5000 0.2500 0.1667  plane waves:    1255
 k-point    56 :  -0.4167 0.2500 0.1667  plane waves:    1260
 k-point    57 :  -0.3333 0.3333 0.1667  plane waves:    1248
 k-point    58 :   0.0000 0.0000 0.2500  plane waves:    1231
 k-point    59 :   0.0833-0.0000 0.2500  plane waves:    1237
 k-point    60 :   0.1667-0.0000 0.2500  plane waves:    1233
[...]
 k-point   119 :   0.3333-0.0000 0.5000  plane waves:    1240
 k-point   120 :   0.4167 0.0000 0.5000  plane waves:    1248
 k-point   121 :   0.5000 0.0000 0.5000  plane waves:    1260
 k-point   122 :   0.1667 0.0833 0.5000  plane waves:    1228
 k-point   123 :   0.2500 0.0833 0.5000  plane waves:    1252
 k-point   124 :   0.3333 0.0833 0.5000  plane waves:    1244
 k-point   125 :   0.4167 0.0833 0.5000  plane waves:    1256
 k-point   126 :   0.5000 0.0833 0.5000  plane waves:    1250
 k-point   127 :   0.3333 0.1667 0.5000  plane waves:    1248
 k-point   128 :   0.4167 0.1667 0.5000  plane waves:    1252
 k-point   129 :   0.5000 0.1667 0.5000  plane waves:    1262
 k-point   130 :  -0.4167 0.1667 0.5000  plane waves:    1248
 k-point   131 :   0.5000 0.2500 0.5000  plane waves:    1252
 k-point   132 :  -0.4167 0.2500 0.5000  plane waves:    1268
 k-point   133 :  -0.3333 0.3333 0.5000  plane waves:    1272

 maximum and minimum number of plane-waves per node :      1281     1208

 maximum number of plane-waves:      1281
 maximum index in each direction:
   IXMAX=    6   IYMAX=    5   IZMAX=    9
   IXMIN=   -6   IYMIN=   -6   IZMIN=  -10

 serial   3D FFT for wavefunctions
 parallel 3D FFT for charge:
    minimum data exchange during FFTs selected (reduces bandwidth)

 Broyden mixing: mesh for mixing (old mesh)
   NGX = 11   NGY = 11   NGZ = 19
  (NGX  = 36   NGY  = 36   NGZ  = 60)
  gives a total of   2299 points

 charge density for first step will be calculated from the start-wavefunctions

 Maximum index for augmentation-charges          137 (set IRDMAX)

 initial charge from wavefunction
 First call to EWALD:  gamma=   0.540
 Maximum number of real-space cells 3x 3x 2
 Maximum number of reciprocal cells 3x 3x 4

--------------------------------------- Ionic step        1  -------------------------------------------

--------------------------------------- Iteration      1(   1)  ---------------------------------------

 eigenvalue-minimisations  : 12768
 total energy-change (2. order) :-0.2321996E-01  (-0.1018629E-05)
 number of electron       4.0000024 magnetization
 augmentation part        0.4579692 magnetization

 Broyden mixing:
  rms(total) = 0.13335E-03    rms(broyden)= 0.12865E-03
  rms(prec ) = 0.19871E-03
  weight for this iteration     100.00

 Free energy of the ion-electron system (eV)
  alpha Z        PSCENC =         1.08950986
  Ewald energy   TEWEN  =       -63.80363432
  -Hartree energ DENC   =       -49.17587379
  -exchange      EXHF   =         0.00000000
  -V(xc)+E(xc)   XCENC  =        15.62830891
  PAW double counting   =        92.40652829      -94.24741964
  entropy T*S    EENTRO =        -0.00000000
  eigenvalues    EBANDS =       -59.36257639
  atomic energy  EATOM  =       157.44193714
  Solvation  Ediel_sol  =         0.00000000
  free energy    TOTEN  =        -0.02321996 eV

  energy without entropy =       -0.02321996  energy(sigma->0) =       -0.02321996

--------------------------------------- Iteration      1(   2)  ---------------------------------------

 eigenvalue-minimisations  : 11472
 total energy-change (2. order) : 0.1898030E-08  (-0.3304645E-08)
 number of electron       4.0000024 magnetization
 augmentation part        0.4579692 magnetization

 Free energy of the ion-electron system (eV)
  alpha Z        PSCENC =         1.08950986
  Ewald energy   TEWEN  =       -63.80363432
  -Hartree energ DENC   =       -49.17709929
  -exchange      EXHF   =         0.00000000
  -V(xc)+E(xc)   XCENC  =        15.62849497
  PAW double counting   =        92.40890006      -94.24986352
  entropy T*S    EENTRO =        -0.00000000
  eigenvalues    EBANDS =       -59.36146484
  atomic energy  EATOM  =       157.44193714
  Solvation  Ediel_sol  =         0.00000000
  free energy    TOTEN  =        -0.02321995 eV

  energy without entropy =       -0.02321995  energy(sigma->0) =       -0.02321995

 average (electrostatic) potential at core
  the test charge radii are     0.5166
  (the norm of the test charge is              1.0000)
       1 -54.9723       2 -54.9723

 E-fermi : -14.1508     XC(G=0):  -5.0689     alpha+bet : -0.9189

 val. band max:      -14.5832028893   @ k =   0.5000   0.2500   0.0000
 cond. band min:       2.8658740991   @ k =   0.0000  -0.0000   0.3333
 fundamental gap:     17.4490769884
 Fermi energy:       -14.1507678905

 k-point     1 :       0.0000    0.0000    0.0000
  band No.  band energies     occupation
      1     -15.6149      2.00000
      2     -14.8176      2.00000
      3       2.8879      0.00000
      4       3.0147      0.00000
      5       9.1572      0.00000
      6      17.1688      0.00000
      7      17.1688      0.00000
      8      18.5671      0.00000
      9      18.5672      0.00000
     10      19.6490      0.00000
     11      21.2854      0.00000
     12      23.1345      0.00000
     13      23.1347      0.00000
     14      24.0906      0.00000
     15      24.6632      0.00000
     16      25.1495      0.00000
     17      25.1497      0.00000
     18      26.1785      0.00000
     19      26.1785      0.00000
     20      26.2035      0.00000
     21      27.0424      0.00000
     22      27.0745      0.00000
     23      27.0745      0.00000
     24      34.9081      0.00000
     25      41.2461      0.00000
     26      43.0136      0.00000
     27      43.8741      0.00000
     28      43.8742      0.00000
     29      44.5286      0.00000
     30      44.5286      0.00000
     31      45.6722      0.00000
     32      45.6724      0.00000
     33      45.7807      0.00000
     34      45.8830      0.00000
     35      45.8831      0.00000
     36      54.3525      0.00000
     37      54.6371      0.00000
     38      56.1075      0.00000
     39      61.5231      0.00000
     40      63.5548      0.00000
     41      63.5549      0.00000
     42      65.6037      0.00000
     43      65.6043      0.00000
     44      65.8400      0.00000
     45      67.8296      0.00000
     46      67.8298      0.00000
     47      70.6708      0.00000
     48      70.9327      0.00000

[...]

 k-point   133 :      -0.3333    0.3333    0.5000
  band No.  band energies     occupation
      1     -14.6408      2.00000
      2     -14.6408      2.00000
      3       5.3747      0.00000
      4       5.3749      0.00000
      5       5.8710      0.00000
      6       5.8710      0.00000
      7      12.6904      0.00000
      8      12.6907      0.00000
      9      16.4112      0.00000
     10      16.4115      0.00000
     11      19.1594      0.00000
     12      19.1594      0.00000
     13      24.4470      0.00000
     14      24.4474      0.00000
     15      27.6259      0.00000
     16      27.6259      0.00000
     17      27.7180      0.00000
     18      27.7184      0.00000
     19      34.6200      0.00000
     20      34.6201      0.00000
     21      39.0847      0.00000
     22      39.0849      0.00000
     23      41.0482      0.00000
     24      41.0482      0.00000
     25      44.0741      0.00000
     26      44.0745      0.00000
     27      44.1456      0.00000
     28      44.1458      0.00000
     29      45.4102      0.00000
     30      45.4102      0.00000
     31      47.2690      0.00000
     32      47.2695      0.00000
     33      49.1650      0.00000
     34      49.1652      0.00000
     35      49.3979      0.00000
     36      49.3980      0.00000
     37      52.7453      0.00000
     38      52.7454      0.00000
     39      52.8105      0.00000
     40      52.8114      0.00000
     41      52.8692      0.00000
     42      52.8692      0.00000
     43      60.3907      0.00000
     44      60.3907      0.00000
     45      63.1507      0.00000
     46      63.1510      0.00000
     47      63.1616      0.00000
     48      63.1616      0.00000

 soft charge-density along one line, spin component           1
         0         1         2         3         4         5         6         7         8         9
 total charge-density along one line

------------------------ aborting loop because EDIFF is reached ----------------------------------------

  FORCE on cell =-STRESS in cart. coord.  units (eV):
  Direction    XX          YY          ZZ          XY          YZ          ZX
  Alpha Z     1.08951     1.08951     1.08951
  Ewald     -21.28244   -21.28244   -21.23880    -0.00000     0.00000     0.00000
  Hartree    16.38031    16.38031    16.41811    -0.00000     0.00000     0.00000
  E(xc)     -17.81937   -17.81941   -17.81959     0.00004     0.00001     0.00003
  Local     -21.13917   -21.13922   -21.22006     0.00004    -0.00000    -0.00000
  n-local   -27.54143   -27.59628   -27.56808    -0.02545     0.00007    -0.00097
  augment     4.84133     4.84107     4.84123     0.00023    -0.00001    -0.00001
  Kinetic    66.69859    64.22906    65.46501    -1.12013     0.00586    -0.02287
  Fock        0.00000     0.00000     0.00000     0.00000     0.00000     0.00000
  Total      -0.03502    -0.03502    -0.03268     0.00000    -0.00000    -0.00000
  in kB      -1.58298    -1.58298    -1.47719     0.00000    -0.00000    -0.00000

 VOLUME and BASIS-vectors are now :
  energy-cutoff  :      622.56
  volume of cell :       35.45
      direct lattice vectors                 reciprocal lattice vectors
     2.926610000  0.000000000  0.000000000     0.341692265 -0.197276121  0.000000000
     1.463305000  2.534518607  0.000000000     0.000000000  0.394552242  0.000000000
     0.000000000  0.000000000  4.779130000    -0.000000000 -0.000000000  0.209243105

  length of vectors
     2.926610000  2.926610000  4.779130000     0.394552242  0.394552242  0.209243105

 FORCES acting on ions
    electron-ion (+dipol)            ewald-force                    non-local-force                 convergence-correction
   -.432E-08 -.249E-08 -.495E-08   0.355E-13 0.212E-13 -.993E-15   -.127E-19 -.678E-20 0.857E-21   0.500E-08 0.289E-08 0.306E-12
   0.432E-08 0.249E-08 0.495E-08   -.361E-13 -.214E-13 0.994E-15   -.353E-20 -.560E-20 -.272E-21   -.500E-08 -.289E-08 -.310E-12
   -.345E-11 -.192E-11 -.853E-13   -.541E-15 -.146E-15 0.107E-17   -.163E-19 -.124E-19 0.585E-21   -.249E-14 0.295E-14 -.444E-14

 POSITION                                       TOTAL-FORCE (eV/Angst)
      0.00000      0.00000      0.00000         0.000000      0.000000     -0.000000
      1.46331      0.84484      2.38957        -0.000000     -0.000000      0.000000
    total drift:                               -0.000000     -0.000000     -0.000000

  FREE ENERGIE OF THE ION-ELECTRON SYSTEM (eV)
  free  energy   TOTEN  =        -0.02321995 eV

  energy  without entropy=       -0.02321995  energy(sigma->0) =       -0.02321995

 writing wavefunctions