 vasp.6.4.3 19Mar24 (build Jun 26 2024 13:02:28) complex

 executed on             LinuxIFC date 2025.08.08  18:41:47

 INCAR:
   ENCUT = 275.0215
   IBRION = -1
   ISMEAR = 0
   ISYM = 2
   LCHARG = True
   LWAVE = True
   SIGMA = 0.05
   SYSTEM = Se

 POTCAR:  PAW_PBE Se 06Sep2000
|           W    W    AA    RRRRR   N    N  II  N    N   GGGG   !!!           |
|           W    W   A  A   R    R  NN   N  II  NN   N  G    G  !!!           |
|           W    W  A    A  R    R  N N  N  II  N N  N  G       !!!           |
|           W WW W  AAAAAA  RRRRR   N  N N  II  N  N N  G  GGG   !            |
|           WW  WW  A    A  R   R   N   NN  II  N   NN  G    G                |
|           W    W  A    A  R    R  N    N  II  N    N   GGGG   !!!           |
|     For optimal performance we recommend to set                             |
|       NCORE = 2 up to number-of-cores-per-socket                            |
|     This setting can greatly improve the performance of VASP for DFT.       |
|     The default, NCORE=1 might be grossly inefficient on modern             |
|     multi-core architectures or massively parallel machines. Do your        |
|     Unfortunately you need to use the default for GW and RPA                |
|     calculations (for HF NCORE is supported but not extensively tested      |
|     yet).                                                                   |

 POTCAR:  PAW_PBE Se 06Sep2000
   VRHFIN =Se: s2p4

   TITEL  = PAW_PBE Se 06Sep2000
   POMASS =   78.960; ZVAL   =    6.000    mass and valenz
   ENMAX  =  211.555; ENMIN  =  158.666 eV

PAW_PBE Se 06Sep2000                    :

 POSCAR: Se3
  positions in direct lattice

 exchange-correlation table for PE
   RHO(1)=    0.500       N(1)  =     2000
   RHO(2)=  100.500       N(2)  =     4000

 ion  position               nearest neighbor table
   1  0.219  0.000  0.333-   2 2.40   3 2.40
   2  0.000  0.219  0.667-   1 2.40   3 2.40
   3  0.781  0.781  0.000-   2 2.40   1 2.40

  LATTYP: Found a hexagonal cell.
 ALAT       =     4.5246400000
 C/A-ratio  =     1.1160622724

  Lattice vectors:

 A1 = (   4.5246400000,   0.0000000000,   0.0000000000)
 A2 = (  -2.2623200000,   3.9184531830,   0.0000000000)
 A3 = (   0.0000000000,   0.0000000000,   5.0497800000)

Analysis of symmetry for initial positions (statically):
 Subroutine PRICEL returns:
 Original cell was already a primitive cell.

 Routine SETGRP: Setting up the symmetry group for a
 hexagonal supercell.

 Subroutine GETGRP returns: Found  6 space group operations
 (whereof  2 operations were pure point group operations)
 out of a pool of 24 trial point group operations.

The static configuration has the point symmetry C_2 .
 The point group associated with its full space group is D_3 .

Analysis of symmetry for dynamics (positions and initial velocities):
 Subroutine PRICEL returns:
 Original cell was already a primitive cell.

 Routine SETGRP: Setting up the symmetry group for a
 hexagonal supercell.

 Subroutine GETGRP returns: Found  6 space group operations
 (whereof  2 operations were pure point group operations)
 out of a pool of 24 trial point group operations.

The dynamic configuration has the point symmetry C_2 .
 The point group associated with its full space group is D_3 .

 Subroutine INISYM returns: Found  6 space group operations
 (whereof  2 operations are pure point group operations),
 and found     1 'primitive' translations

                                     Primitive cell

  volume of cell :      89.5305

  direct lattice vectors                    reciprocal lattice vectors
     4.524640000  0.000000000  0.000000000     0.221012058  0.127601371  0.000000000
    -2.262320000  3.918453183  0.000000000     0.000000000  0.255202743  0.000000000
     0.000000000  0.000000000  5.049780000    -0.000000000 -0.000000000  0.198028429

  length of vectors
     4.524640000  4.524640000  5.049780000     0.255202743  0.255202743  0.198028429

  position of ions in fractional coordinates (direct lattice)
     0.219030000  0.000000000  0.333333333
     0.000000000  0.219030000  0.666666667
     0.780970000  0.780970000  1.000000000

  ion indices of the primitive-cell ions
   primitive index   ion index
                 1           1
                 2           2
                 3           3

 KPOINTS: Automatic kpoint scheme

Automatic generation of k-mesh.
 Grid dimensions read from file:
 generate k-points for:    8    8    8

 Generating k-lattice:

  Cartesian coordinates                     Fractional coordinates (reciprocal lattice)
     0.027626507  0.015950171  0.000000000     0.125000000  0.000000000  0.000000000
     0.000000000  0.031900343  0.000000000     0.000000000  0.125000000  0.000000000
    -0.000000000 -0.000000000  0.024753554    -0.000000000 -0.000000000  0.125000000

  Length of vectors
     0.031900343  0.031900343  0.024753554

  Shift w.r.t. Gamma in fractional coordinates (k-lattice)
     0.000000000  0.000000000  0.000000000

 Subroutine IBZKPT returns following result:

 Found     65 irreducible k-points:

 Following reciprocal coordinates:
            Coordinates               Weight
  0.000000  0.000000  0.000000      1.000000
  0.125000 -0.000000  0.000000      6.000000
  0.250000 -0.000000  0.000000      6.000000
  0.375000 -0.000000  0.000000      6.000000
  0.500000 -0.000000  0.000000      3.000000
  0.125000  0.125000  0.000000      6.000000
  0.250000  0.125000  0.000000     12.000000
  0.375000  0.125000  0.000000     12.000000
  0.250000  0.250000  0.000000      6.000000
  0.375000  0.250000  0.000000      6.000000
 -0.000000  0.000000  0.125000      2.000000
  0.125000 -0.000000  0.125000      6.000000
 -0.000000  0.125000  0.125000      6.000000
  0.250000 -0.000000  0.125000      6.000000
 -0.000000  0.250000  0.125000      6.000000
  0.375000 -0.000000  0.125000      6.000000
 -0.000000  0.375000  0.125000      6.000000
  0.500000 -0.000000  0.125000      6.000000
  0.125000  0.125000  0.125000     12.000000
  0.250000  0.125000  0.125000     12.000000
 -0.125000  0.375000  0.125000     12.000000
  0.375000  0.125000  0.125000     12.000000
 -0.125000  0.500000  0.125000     12.000000
  0.250000  0.250000  0.125000     12.000000
  0.375000  0.250000  0.125000     12.000000
 -0.000000  0.000000  0.250000      2.000000
  0.125000 -0.000000  0.250000      6.000000
 -0.000000  0.125000  0.250000      6.000000
  0.250000 -0.000000  0.250000      6.000000
 -0.000000  0.250000  0.250000      6.000000
  0.375000 -0.000000  0.250000      6.000000
 -0.000000  0.375000  0.250000      6.000000
  0.500000 -0.000000  0.250000      6.000000
  0.125000  0.125000  0.250000     12.000000
  0.250000  0.125000  0.250000     12.000000
 -0.125000  0.375000  0.250000     12.000000
  0.375000  0.125000  0.250000     12.000000
 -0.125000  0.500000  0.250000     12.000000
  0.250000  0.250000  0.250000     12.000000
  0.375000  0.250000  0.250000     12.000000
 -0.000000  0.000000  0.375000      2.000000
  0.125000  0.000000  0.375000      6.000000
 -0.000000  0.125000  0.375000      6.000000
  0.250000  0.000000  0.375000      6.000000
 -0.000000  0.250000  0.375000      6.000000
  0.375000 -0.000000  0.375000      6.000000
 -0.000000  0.375000  0.375000      6.000000
  0.500000 -0.000000  0.375000      6.000000
  0.125000  0.125000  0.375000     12.000000
  0.250000  0.125000  0.375000     12.000000
 -0.125000  0.375000  0.375000     12.000000
  0.375000  0.125000  0.375000     12.000000
 -0.125000  0.500000  0.375000     12.000000
  0.250000  0.250000  0.375000     12.000000
  0.375000  0.250000  0.375000     12.000000
 -0.000000  0.000000  0.500000      1.000000
  0.125000  0.000000  0.500000      6.000000
  0.250000 -0.000000  0.500000      6.000000
  0.375000 -0.000000  0.500000      6.000000
  0.500000 -0.000000  0.500000      3.000000
  0.125000  0.125000  0.500000      6.000000
  0.250000  0.125000  0.500000     12.000000
  0.375000  0.125000  0.500000     12.000000
  0.250000  0.250000  0.500000      6.000000
  0.375000  0.250000  0.500000      6.000000

 Following cartesian coordinates:
            Coordinates               Weight
  0.000000  0.000000  0.000000      1.000000
  0.027627  0.015950  0.000000      6.000000
  0.055253  0.031900  0.000000      6.000000
  0.082880  0.047851  0.000000      6.000000
  0.110506  0.063801  0.000000      3.000000
  0.027627  0.047851  0.000000      6.000000
  0.055253  0.063801  0.000000     12.000000
  0.082880  0.079751  0.000000     12.000000
  0.055253  0.095701  0.000000      6.000000
  0.082880  0.111651  0.000000      6.000000
 -0.000000 -0.000000  0.024754      2.000000
  0.027627  0.015950  0.024754      6.000000
 -0.000000  0.031900  0.024754      6.000000
  0.055253  0.031900  0.024754      6.000000
 -0.000000  0.063801  0.024754      6.000000
  0.082880  0.047851  0.024754      6.000000
 -0.000000  0.095701  0.024754      6.000000
  0.110506  0.063801  0.024754      6.000000
  0.027627  0.047851  0.024754     12.000000
  0.055253  0.063801  0.024754     12.000000
 -0.027627  0.079751  0.024754     12.000000
  0.082880  0.079751  0.024754     12.000000
 -0.027627  0.111651  0.024754     12.000000
  0.055253  0.095701  0.024754     12.000000
  0.082880  0.111651  0.024754     12.000000
 -0.000000 -0.000000  0.049507      2.000000
  0.027627  0.015950  0.049507      6.000000
 -0.000000  0.031900  0.049507      6.000000
  0.055253  0.031900  0.049507      6.000000
 -0.000000  0.063801  0.049507      6.000000
  0.082880  0.047851  0.049507      6.000000
 -0.000000  0.095701  0.049507      6.000000
  0.110506  0.063801  0.049507      6.000000
  0.027627  0.047851  0.049507     12.000000
  0.055253  0.063801  0.049507     12.000000
 -0.027627  0.079751  0.049507     12.000000
  0.082880  0.079751  0.049507     12.000000
 -0.027627  0.111651  0.049507     12.000000
  0.055253  0.095701  0.049507     12.000000
  0.082880  0.111651  0.049507     12.000000
 -0.000000 -0.000000  0.074261      2.000000
  0.027627  0.015950  0.074261      6.000000
 -0.000000  0.031900  0.074261      6.000000
  0.055253  0.031900  0.074261      6.000000
 -0.000000  0.063801  0.074261      6.000000
  0.082880  0.047851  0.074261      6.000000
 -0.000000  0.095701  0.074261      6.000000
  0.110506  0.063801  0.074261      6.000000
  0.027627  0.047851  0.074261     12.000000
  0.055253  0.063801  0.074261     12.000000
 -0.027627  0.079751  0.074261     12.000000
  0.082880  0.079751  0.074261     12.000000
 -0.027627  0.111651  0.074261     12.000000
  0.055253  0.095701  0.074261     12.000000
  0.082880  0.111651  0.074261     12.000000
 -0.000000 -0.000000  0.099014      1.000000
  0.027627  0.015950  0.099014      6.000000
  0.055253  0.031900  0.099014      6.000000
  0.082880  0.047851  0.099014      6.000000
  0.110506  0.063801  0.099014      3.000000
  0.027627  0.047851  0.099014      6.000000
  0.055253  0.063801  0.099014     12.000000
  0.082880  0.079751  0.099014     12.000000
  0.055253  0.095701  0.099014      6.000000
  0.082880  0.111651  0.099014      6.000000

 Subroutine IBZKPT_HF returns following result:

 Found    512 k-points in 1st BZ
[...]
   0.50000000 -0.00000000  0.12500000       0.012
   0.12500000  0.12500000  0.12500000       0.023
   0.25000000  0.12500000  0.12500000       0.023
  -0.12500000  0.37500000  0.12500000       0.023
   0.37500000  0.12500000  0.12500000       0.023
  -0.12500000  0.50000000  0.12500000       0.023
   0.25000000  0.25000000  0.12500000       0.023
   0.37500000  0.25000000  0.12500000       0.023
  -0.00000000  0.00000000  0.25000000       0.004
   0.12500000 -0.00000000  0.25000000       0.012
  -0.00000000  0.12500000  0.25000000       0.012
   0.25000000 -0.00000000  0.25000000       0.012
  -0.00000000  0.25000000  0.25000000       0.012
   0.37500000 -0.00000000  0.25000000       0.012
  -0.00000000  0.37500000  0.25000000       0.012
   0.50000000 -0.00000000  0.25000000       0.012
   0.12500000  0.12500000  0.25000000       0.023
   0.25000000  0.12500000  0.25000000       0.023
  -0.12500000  0.37500000  0.25000000       0.023
   0.37500000  0.12500000  0.25000000       0.023
  -0.12500000  0.50000000  0.25000000       0.023
   0.25000000  0.25000000  0.25000000       0.023
   0.37500000  0.25000000  0.25000000       0.023
  -0.00000000  0.00000000  0.37500000       0.004
   0.12500000  0.00000000  0.37500000       0.012
  -0.00000000  0.12500000  0.37500000       0.012
   0.25000000  0.00000000  0.37500000       0.012
  -0.00000000  0.25000000  0.37500000       0.012
   0.37500000 -0.00000000  0.37500000       0.012
  -0.00000000  0.37500000  0.37500000       0.012
   0.50000000 -0.00000000  0.37500000       0.012
   0.12500000  0.12500000  0.37500000       0.023
   0.25000000  0.12500000  0.37500000       0.023
  -0.12500000  0.37500000  0.37500000       0.023
   0.37500000  0.12500000  0.37500000       0.023
  -0.12500000  0.50000000  0.37500000       0.023
   0.25000000  0.25000000  0.37500000       0.023
   0.37500000  0.25000000  0.37500000       0.023
  -0.00000000  0.00000000  0.50000000       0.002
   0.12500000  0.00000000  0.50000000       0.012
   0.25000000 -0.00000000  0.50000000       0.012
   0.37500000 -0.00000000  0.50000000       0.012
   0.50000000 -0.00000000  0.50000000       0.006
   0.12500000  0.12500000  0.50000000       0.012
   0.25000000  0.12500000  0.50000000       0.023
   0.37500000  0.12500000  0.50000000       0.023
   0.25000000  0.25000000  0.50000000       0.012
   0.37500000  0.25000000  0.50000000       0.012

 position of ions in fractional coordinates (direct lattice)
   0.21903000  0.00000000  0.33333333
   0.00000000  0.21903000  0.66666667
   0.78097000  0.78097000  0.00000000

 position of ions in cartesian coordinates  (Angst):
   0.99103190  0.00000000  1.68326000
  -0.49551595  0.85825880  3.36652000
   1.76680405  3.06019438  0.00000000

 k-point     1 :   0.0000 0.0000 0.0000  plane waves:     925
 k-point     2 :   0.1250-0.0000 0.0000  plane waves:     919
 k-point     3 :   0.2500-0.0000 0.0000  plane waves:     919
 k-point     4 :   0.3750-0.0000 0.0000  plane waves:     930
 k-point     5 :   0.5000-0.0000 0.0000  plane waves:     920
 k-point     6 :   0.1250 0.1250 0.0000  plane waves:     922
 k-point     7 :   0.2500 0.1250 0.0000  plane waves:     922
 k-point     8 :   0.3750 0.1250 0.0000  plane waves:     925
 k-point     9 :   0.2500 0.2500 0.0000  plane waves:     936
 k-point    10 :   0.3750 0.2500 0.0000  plane waves:     942
 k-point    11 :  -0.0000 0.0000 0.1250  plane waves:     937
 k-point    12 :   0.1250-0.0000 0.1250  plane waves:     919
 k-point    13 :  -0.0000 0.1250 0.1250  plane waves:     919
 k-point    14 :   0.2500-0.0000 0.1250  plane waves:     920
 k-point    15 :  -0.0000 0.2500 0.1250  plane waves:     920
 k-point    16 :   0.3750-0.0000 0.1250  plane waves:     929
 k-point    17 :  -0.0000 0.3750 0.1250  plane waves:     929
 k-point    18 :   0.5000-0.0000 0.1250  plane waves:     930
 k-point    19 :   0.1250 0.1250 0.1250  plane waves:     919
 k-point    20 :   0.2500 0.1250 0.1250  plane waves:     925
 k-point    21 :  -0.1250 0.3750 0.1250  plane waves:     925
 k-point    22 :   0.3750 0.1250 0.1250  plane waves:     930
 k-point    23 :  -0.1250 0.5000 0.1250  plane waves:     930
 k-point    24 :   0.2500 0.2500 0.1250  plane waves:     937
 k-point    25 :   0.3750 0.2500 0.1250  plane waves:     935
 k-point    26 :  -0.0000 0.0000 0.2500  plane waves:     932
 k-point    27 :   0.1250-0.0000 0.2500  plane waves:     920
 k-point    28 :  -0.0000 0.1250 0.2500  plane waves:     920
 k-point    29 :   0.2500-0.0000 0.2500  plane waves:     927
 k-point    30 :  -0.0000 0.2500 0.2500  plane waves:     927
 k-point    31 :   0.3750-0.0000 0.2500  plane waves:     928
 k-point    32 :  -0.0000 0.3750 0.2500  plane waves:     928
 k-point    33 :   0.5000-0.0000 0.2500  plane waves:     926
 k-point    34 :   0.1250 0.1250 0.2500  plane waves:     922
 k-point    35 :   0.2500 0.1250 0.2500  plane waves:     928
 k-point    36 :  -0.1250 0.3750 0.2500  plane waves:     928
 k-point    37 :   0.3750 0.1250 0.2500  plane waves:     926
 k-point    38 :  -0.1250 0.5000 0.2500  plane waves:     926
 k-point    39 :   0.2500 0.2500 0.2500  plane waves:     933
 k-point    40 :   0.3750 0.2500 0.2500  plane waves:     937
 k-point    41 :  -0.0000 0.0000 0.3750  plane waves:     914
 k-point    42 :   0.1250 0.0000 0.3750  plane waves:     926
 k-point    43 :  -0.0000 0.1250 0.3750  plane waves:     926
 k-point    44 :   0.2500 0.0000 0.3750  plane waves:     932
 k-point    45 :  -0.0000 0.2500 0.3750  plane waves:     932
 k-point    46 :   0.3750-0.0000 0.3750  plane waves:     934
 k-point    47 :  -0.0000 0.3750 0.3750  plane waves:     934
 k-point    48 :   0.5000-0.0000 0.3750  plane waves:     928
 k-point    49 :   0.1250 0.1250 0.3750  plane waves:     926
 k-point    50 :   0.2500 0.1250 0.3750  plane waves:     929
 k-point    51 :  -0.1250 0.3750 0.3750  plane waves:     929
 k-point    52 :   0.3750 0.1250 0.3750  plane waves:     928
 k-point    53 :  -0.1250 0.5000 0.3750  plane waves:     928
 k-point    54 :   0.2500 0.2500 0.3750  plane waves:     920
 k-point    55 :   0.3750 0.2500 0.3750  plane waves:     931
 k-point    56 :  -0.0000 0.0000 0.5000  plane waves:     890
 k-point    57 :   0.1250 0.0000 0.5000  plane waves:     922
 k-point    58 :   0.2500-0.0000 0.5000  plane waves:     926
 k-point    59 :   0.3750-0.0000 0.5000  plane waves:     920
 k-point    60 :   0.5000-0.0000 0.5000  plane waves:     952
 k-point    61 :   0.1250 0.1250 0.5000  plane waves:     920
 k-point    62 :   0.2500 0.1250 0.5000  plane waves:     926
 k-point    63 :   0.3750 0.1250 0.5000  plane waves:     930
 k-point    64 :   0.2500 0.2500 0.5000  plane waves:     936
 k-point    65 :   0.3750 0.2500 0.5000  plane waves:     936

 maximum and minimum number of plane-waves per node :       952      890

 maximum number of plane-waves:       952
 maximum index in each direction:
   IXMAX=    6   IYMAX=    6   IZMAX=    6
   IXMIN=   -6   IYMIN=   -6   IZMIN=   -7

 serial   3D FFT for wavefunctions
 parallel 3D FFT for charge:
    minimum data exchange during FFTs selected (reduces bandwidth)

 Broyden mixing: mesh for mixing (old mesh)
   NGX = 13   NGY = 13   NGZ = 13
  (NGX  = 36   NGY  = 36   NGZ  = 40)
  gives a total of   2197 points

 charge density for first step will be calculated from the start-wavefunctions

 Maximum index for augmentation-charges          231 (set IRDMAX)

 initial charge from wavefunction
 First call to EWALD:  gamma=   0.396
 Maximum number of real-space cells 3x 3x 2
 Maximum number of reciprocal cells 3x 3x 3

--------------------------------------- Ionic step        1  -------------------------------------------

--------------------------------------- Iteration      1(   1)  ---------------------------------------

 eigenvalue-minimisations  :  4656
 total energy-change (2. order) :-0.1049220E+02  (-0.8319094E-06)
 number of electron      18.0000035 magnetization
 augmentation part       -3.4130426 magnetization

 Broyden mixing:
  rms(total) = 0.17360E-03    rms(broyden)= 0.16914E-03
  rms(prec ) = 0.37190E-03
  weight for this iteration     100.00

 Free energy of the ion-electron system (eV)
  alpha Z        PSCENC =        35.05468027
  Ewald energy   TEWEN  =      -674.31800800
  -Hartree energ DENC   =      -104.94289606
  -exchange      EXHF   =         0.00000000
  -V(xc)+E(xc)   XCENC  =        -2.13997446
  PAW double counting   =       988.06898645     -946.90450829
  entropy T*S    EENTRO =        -0.00000000
  eigenvalues    EBANDS =       -76.68338920
  atomic energy  EATOM  =       771.37291404
  Solvation  Ediel_sol  =         0.00000000
  free energy    TOTEN  =       -10.49219524 eV

  energy without entropy =      -10.49219524  energy(sigma->0) =      -10.49219524

--------------------------------------- Iteration      1(   2)  ---------------------------------------

 eigenvalue-minimisations  :  3168
 total energy-change (2. order) : 0.8961604E-07  (-0.3388085E-07)
 number of electron      18.0000035 magnetization
 augmentation part       -3.4130426 magnetization

 Free energy of the ion-electron system (eV)
  alpha Z        PSCENC =        35.05468027
  Ewald energy   TEWEN  =      -674.31800800
  -Hartree energ DENC   =      -104.94046869
  -exchange      EXHF   =         0.00000000
  -V(xc)+E(xc)   XCENC  =        -2.14003737
  PAW double counting   =       988.08256773     -946.91805849
  entropy T*S    EENTRO =        -0.00000000
  eigenvalues    EBANDS =       -76.68578465
  atomic energy  EATOM  =       771.37291404
  Solvation  Ediel_sol  =         0.00000000
  free energy    TOTEN  =       -10.49219515 eV

  energy without entropy =      -10.49219515  energy(sigma->0) =      -10.49219515

 average (electrostatic) potential at core
  the test charge radii are     1.0808
  (the norm of the test charge is              1.0000)
       1 -56.8554       2 -56.8554       3 -56.8554

 E-fermi :   2.1412     XC(G=0):  -8.4206     alpha+bet : -7.1948

 val. band max:        1.8197063868   @ k =   0.5000  -0.0000   0.5000
 cond. band min:       2.9332218811   @ k =   0.3750   0.2500   0.5000
 fundamental gap:      1.1135154943
 Fermi energy:         2.1411592856

 k-point     1 :       0.0000    0.0000    0.0000
  band No.  band energies     occupation
      1     -13.5415      2.00000
      2      -9.7397      2.00000
      3      -9.7397      2.00000
      4      -1.9027      2.00000
      5      -1.9027      2.00000
      6      -1.5994      2.00000
      7      -0.0162      2.00000
      8      -0.0162      2.00000
      9       1.5143      2.00000
     10       3.7255      0.00000
     11       3.7255      0.00000
     12       4.0961      0.00000
     13       7.6995      0.00000
     14       8.4724      0.00000
     15       8.4724      0.00000
     16      10.2578      0.00000
     17      10.5584      0.00000
     18      10.6798      0.00000
     19      10.6798      0.00000
     20      13.1201      0.00000
     21      13.1201      0.00000
     22      15.4570      0.00000
     23      15.4571      0.00000
     24      19.9816      0.00000
     25      19.9816      0.00000
     26      20.2612      0.00000
     27      20.4788      0.00000
     28      21.2607      0.00000
     29      21.8928      0.00000
     30      21.8929      0.00000
     31      22.7391      0.00000
     32      22.7391      0.00000
     33      24.0953      0.00000
     34      24.0953      0.00000
     35      24.6259      0.00000
     36      24.7414      0.00000
     37      25.0837      0.00000
     38      25.0837      0.00000
     39      25.4382      0.00000
     40      27.0123      0.00000
     41      27.0123      0.00000
     42      27.1586      0.00000
     43      28.0156      0.00000
     44      28.0157      0.00000
     45      28.5325      0.00000
     46      28.5325      0.00000
     47      29.3057      0.00000
     48      29.3058      0.00000

[...]

 k-point    65 :       0.3750    0.2500    0.5000
  band No.  band energies     occupation
      1     -12.1881      2.00000
      2     -12.1471      2.00000
      3      -8.5821      2.00000
      4      -3.5277      2.00000
      5      -2.6232      2.00000
      6      -2.5675      2.00000
      7       0.9262      2.00000
      8       1.2858      2.00000
      9       1.7271      2.00000
     10       2.9332      0.00000
     11       4.4738      0.00000
     12       4.5974      0.00000
     13       8.3928      0.00000
     14       9.6245      0.00000
     15      10.3615      0.00000
     16      10.5977      0.00000
     17      12.0179      0.00000
     18      12.2179      0.00000
     19      13.3496      0.00000
     20      14.2368      0.00000
     21      14.3689      0.00000
     22      14.7567      0.00000
     23      15.6732      0.00000
     24      16.0904      0.00000
     25      17.1230      0.00000
     26      17.5019      0.00000
     27      18.7248      0.00000
     28      18.8959      0.00000
     29      19.3518      0.00000
     30      20.2028      0.00000
     31      20.2994      0.00000
     32      20.8647      0.00000
     33      21.5820      0.00000
     34      21.8824      0.00000
     35      22.5866      0.00000
     36      23.5104      0.00000
     37      23.8126      0.00000
     38      24.6299      0.00000
     39      26.6965      0.00000
     40      26.7321      0.00000
     41      27.3259      0.00000
     42      27.7397      0.00000
     43      28.5042      0.00000
     44      28.7971      0.00000
     45      28.8571      0.00000
     46      29.0335      0.00000
     47      31.0239      0.00000
     48      31.4253      0.00000

 soft charge-density along one line, spin component           1
         0         1         2         3         4         5         6         7         8         9
 total charge-density along one line

------------------------ aborting loop because EDIFF is reached ----------------------------------------

  FORCE on cell =-STRESS in cart. coord.  units (eV):
  Direction    XX          YY          ZZ          XY          YZ          ZX
  Alpha Z    35.05468    35.05468    35.05468
  Ewald    -259.20675  -259.20675  -155.90515    -0.00000     0.00000    -0.00000
  Hartree    21.81435    21.81435    61.30825    -0.00000     0.00001    -0.00001
  E(xc)     -66.12644   -66.12648   -65.55355    -0.00004    -0.00000    -0.00000
  Local     -57.37705   -57.37839  -186.13989    -0.00114    -0.00024    -0.00009
  n-local   125.79670   126.12488   124.83059     0.07727    -0.28797    -0.46869
  augment   -13.29804   -13.29746   -12.00368     0.00050    -0.00013     0.00028
  Kinetic   213.06996   213.19410   198.35748    -3.54149    -0.09867     0.84489
  Fock        0.00000     0.00000     0.00000     0.00000     0.00000     0.00000
  Total      -0.04682    -0.04682    -0.05126    -0.00000    -0.00000     0.00000
  in kB      -0.83784    -0.83784    -0.91731    -0.00000    -0.00000     0.00000

 VOLUME and BASIS-vectors are now :
  energy-cutoff  :      275.02
  volume of cell :       89.53
      direct lattice vectors                 reciprocal lattice vectors
     4.524640000  0.000000000  0.000000000     0.221012058  0.127601371  0.000000000
    -2.262320000  3.918453183  0.000000000     0.000000000  0.255202743  0.000000000
     0.000000000  0.000000000  5.049780000    -0.000000000 -0.000000000  0.198028429

  length of vectors
     4.524640000  4.524640000  5.049780000     0.255202743  0.255202743  0.198028429

 FORCES acting on ions
    electron-ion (+dipol)            ewald-force                    non-local-force                 convergence-correction
   -.485E+02 0.932E-06 0.335E-04   0.529E+02 -.255E-11 -.597E-11   -.439E+01 0.131E-16 -.309E-15   -.144E-02 -.340E-08 0.498E-09
   0.242E+02 -.420E+02 -.359E-04   -.264E+02 0.458E+02 0.598E-11   0.219E+01 -.380E+01 -.307E-15   0.719E-03 -.124E-02 -.456E-09
   0.242E+02 0.420E+02 0.339E-05   -.264E+02 -.458E+02 -.710E-14   0.219E+01 0.380E+01 0.621E-15   0.719E-03 0.124E-02 -.418E-10
   -.168E-04 -.264E-04 0.105E-05   0.000E+00 0.000E+00 0.323E-17   -.888E-15 0.444E-15 0.552E-17   0.932E-09 0.178E-08 0.633E-12

 POSITION                                       TOTAL-FORCE (eV/Angst)
      0.99103      0.00000      1.68326        -0.004911     -0.000000     -0.000000
     -0.49552      0.85826      3.36652         0.002455     -0.004253     -0.000000
      1.76680      3.06019      0.00000         0.002455      0.004253      0.000000
    total drift:                               -0.000017     -0.000026      0.000001

  FREE ENERGIE OF THE ION-ELECTRON SYSTEM (eV)
  free  energy   TOTEN  =       -10.49219515 eV

  energy  without entropy=      -10.49219515  energy(sigma->0) =      -10.49219515

 writing wavefunctions