 vasp.6.4.3 19Mar24 (build Jun 26 2024 13:02:28) complex

 executed on             LinuxIFC date 2025.08.08  18:53:55

 INCAR:
   ENCUT = 243.33530000000002
   IBRION = -1
   ISMEAR = 0
   ISYM = 2
   LCHARG = True
   LWAVE = True
   SIGMA = 0.05
   SYSTEM = Ba

 POTCAR:  PAW_PBE Ba_sv 06Sep2000
|           W    W    AA    RRRRR   N    N  II  N    N   GGGG   !!!           |
|           W    W   A  A   R    R  NN   N  II  NN   N  G    G  !!!           |
|           W    W  A    A  R    R  N N  N  II  N N  N  G       !!!           |
|           W WW W  AAAAAA  RRRRR   N  N N  II  N  N N  G  GGG   !            |
|           WW  WW  A    A  R   R   N   NN  II  N   NN  G    G                |
|           W    W  A    A  R    R  N    N  II  N    N   GGGG   !!!           |
|     For optimal performance we recommend to set                             |
|       NCORE = 2 up to number-of-cores-per-socket                            |
|     This setting can greatly improve the performance of VASP for DFT.       |
|     The default, NCORE=1 might be grossly inefficient on modern             |
|     multi-core architectures or massively parallel machines. Do your        |
|     Unfortunately you need to use the default for GW and RPA                |
|     calculations (for HF NCORE is supported but not extensively tested      |
|     yet).                                                                   |

 POTCAR:  PAW_PBE Ba_sv 06Sep2000
   VRHFIN =Ba: 5s5p6s

   TITEL  = PAW_PBE Ba_sv 06Sep2000
   POMASS =  137.327; ZVAL   =   10.000    mass and valenz
   ENMAX  =  187.181; ENMIN  =  140.386 eV

PAW_PBE Ba_sv 06Sep2000                 :

 POSCAR: Ba2
  positions in direct lattice

 exchange-correlation table for PE
   RHO(1)=    0.500       N(1)  =     2000
   RHO(2)=  100.500       N(2)  =     4000

 ion  position               nearest neighbor table
   1  0.000  0.000  0.000-   2 4.35   2 4.35   2 4.35   2 4.35   2 4.35   2 4.35   2 4.35   2 4.35

   2  0.500  0.500  0.500-   1 4.35   1 4.35   1 4.35   1 4.35   1 4.35   1 4.35   1 4.35   1 4.35

  LATTYP: Found a simple cubic cell.
 ALAT       =     5.0279200000

  Lattice vectors:

 A1 = (   5.0279200000,   0.0000000000,   0.0000000000)
 A2 = (   0.0000000000,   5.0279200000,   0.0000000000)
 A3 = (   0.0000000000,   0.0000000000,   5.0279200000)

Analysis of symmetry for initial positions (statically):
 Subroutine PRICEL returns following result:

  LATTYP: Found a body centered cubic cell.
 ALAT       =     5.0279200000

[...]

   2 primitive cells build up your supercell.

 Routine SETGRP: Setting up the symmetry group for a
 simple cubic supercell.

 Subroutine GETGRP returns: Found 48 space group operations
 (whereof 48 operations were pure point group operations)
 out of a pool of 48 trial point group operations.

The static configuration has the point symmetry O_h .

Analysis of symmetry for dynamics (positions and initial velocities):
 Subroutine PRICEL returns following result:

  LATTYP: Found a body centered cubic cell.
 ALAT       =     5.0279200000

  Lattice vectors:

 A1 = (   2.5139600000,   2.5139600000,  -2.5139600000)
 A2 = (  -2.5139600000,   2.5139600000,   2.5139600000)
 A3 = (   2.5139600000,  -2.5139600000,   2.5139600000)

   2 primitive cells build up your supercell.

 Routine SETGRP: Setting up the symmetry group for a
 simple cubic supercell.

 Subroutine GETGRP returns: Found 48 space group operations
 (whereof 48 operations were pure point group operations)
 out of a pool of 48 trial point group operations.

The dynamic configuration has the point symmetry O_h .

 Subroutine INISYM returns: Found 48 space group operations
 (whereof 48 operations are pure point group operations),
 and found     2 'primitive' translations

                                     Primitive cell

  volume of cell :      63.5529

  direct lattice vectors                    reciprocal lattice vectors
     2.513960000  2.513960000 -2.513960000     0.198889402  0.198889402 -0.000000000
    -2.513960000  2.513960000  2.513960000    -0.000000000  0.198889402  0.198889402
     2.513960000 -2.513960000  2.513960000     0.198889402 -0.000000000  0.198889402

  length of vectors
     4.354306448  4.354306448  4.354306448     0.281272089  0.281272089  0.281272089

  position of ions in fractional coordinates (direct lattice)
     0.000000000  0.000000000  0.000000000

  ion indices of the primitive-cell ions
   primitive index   ion index
                 1           1

 KPOINTS: Automatic kpoint scheme

Automatic generation of k-mesh.
 Grid dimensions read from file:
 generate k-points for:    8    8    8

 Generating k-lattice:

  Cartesian coordinates                     Fractional coordinates (reciprocal lattice)
     0.024861175 -0.000000000  0.000000000     0.125000000  0.000000000  0.000000000
     0.000000000  0.024861175  0.000000000     0.000000000  0.125000000  0.000000000
    -0.000000000 -0.000000000  0.024861175     0.000000000 -0.000000000  0.125000000

  Length of vectors
     0.024861175  0.024861175  0.024861175

  Shift w.r.t. Gamma in fractional coordinates (k-lattice)
     0.000000000  0.000000000  0.000000000

 Subroutine IBZKPT returns following result:

 Found     35 irreducible k-points:

 Following reciprocal coordinates:
            Coordinates               Weight
  0.000000  0.000000  0.000000      1.000000
  0.125000  0.000000  0.000000      6.000000
  0.250000  0.000000  0.000000      6.000000
  0.375000  0.000000  0.000000      6.000000
  0.500000  0.000000  0.000000      3.000000
  0.125000  0.125000  0.000000     12.000000
  0.250000  0.125000  0.000000     24.000000
  0.375000  0.125000  0.000000     24.000000
  0.500000  0.125000  0.000000     12.000000
  0.250000  0.250000  0.000000     12.000000
  0.375000  0.250000  0.000000     24.000000
  0.500000  0.250000  0.000000     12.000000
  0.375000  0.375000  0.000000     12.000000
  0.500000  0.375000  0.000000     12.000000
  0.500000  0.500000  0.000000      3.000000
  0.125000  0.125000  0.125000      8.000000
  0.250000  0.125000  0.125000     24.000000
  0.375000  0.125000  0.125000     24.000000
  0.500000  0.125000  0.125000     12.000000
  0.250000  0.250000  0.125000     24.000000
  0.375000  0.250000  0.125000     48.000000
  0.500000  0.250000  0.125000     24.000000
  0.375000  0.375000  0.125000     24.000000
  0.500000  0.375000  0.125000     24.000000
  0.500000  0.500000  0.125000      6.000000
  0.250000  0.250000  0.250000      8.000000
  0.375000  0.250000  0.250000     24.000000
  0.500000  0.250000  0.250000     12.000000
  0.375000  0.375000  0.250000     24.000000
  0.500000  0.375000  0.250000     24.000000
  0.500000  0.500000  0.250000      6.000000
  0.375000  0.375000  0.375000      8.000000
  0.500000  0.375000  0.375000     12.000000
  0.500000  0.500000  0.375000      6.000000
  0.500000  0.500000  0.500000      1.000000

 Following cartesian coordinates:
            Coordinates               Weight
  0.000000  0.000000  0.000000      1.000000
  0.024861 -0.000000  0.000000      6.000000
  0.049722 -0.000000  0.000000      6.000000
  0.074584 -0.000000  0.000000      6.000000
  0.099445 -0.000000  0.000000      3.000000
  0.024861  0.024861  0.000000     12.000000
  0.049722  0.024861  0.000000     24.000000
  0.074584  0.024861  0.000000     24.000000
  0.099445  0.024861  0.000000     12.000000
  0.049722  0.049722  0.000000     12.000000
  0.074584  0.049722  0.000000     24.000000
  0.099445  0.049722  0.000000     12.000000
  0.074584  0.074584  0.000000     12.000000
  0.099445  0.074584  0.000000     12.000000
  0.099445  0.099445  0.000000      3.000000
  0.024861  0.024861  0.024861      8.000000
  0.049722  0.024861  0.024861     24.000000
  0.074584  0.024861  0.024861     24.000000
  0.099445  0.024861  0.024861     12.000000
  0.049722  0.049722  0.024861     24.000000
  0.074584  0.049722  0.024861     48.000000
  0.099445  0.049722  0.024861     24.000000
  0.074584  0.074584  0.024861     24.000000
  0.099445  0.074584  0.024861     24.000000
  0.099445  0.099445  0.024861      6.000000
  0.049722  0.049722  0.049722      8.000000
  0.074584  0.049722  0.049722     24.000000
  0.099445  0.049722  0.049722     12.000000
  0.074584  0.074584  0.049722     24.000000
  0.099445  0.074584  0.049722     24.000000
  0.099445  0.099445  0.049722      6.000000
  0.074584  0.074584  0.074584      8.000000
  0.099445  0.074584  0.074584     12.000000
  0.099445  0.099445  0.074584      6.000000
  0.099445  0.099445  0.099445      1.000000

 Subroutine IBZKPT_HF returns following result:

 Found    512 k-points in 1st BZ
 the following    512 k-points will be used (e.g. in the exchange kernel)
 Following reciprocal coordinates:   # in IRBZ
  0.000000  0.000000  0.000000    0.00195312   1 t-inv F
  0.125000  0.000000  0.000000    0.00195312   2 t-inv F
  0.250000  0.000000  0.000000    0.00195312   3 t-inv F
  0.375000  0.000000  0.000000    0.00195312   4 t-inv F
  0.500000  0.000000  0.000000    0.00195312   5 t-inv F
  0.125000  0.125000  0.000000    0.00195312   6 t-inv F
  0.250000  0.125000  0.000000    0.00195312   7 t-inv F
  0.375000  0.125000  0.000000    0.00195312   8 t-inv F
  0.500000  0.125000  0.000000    0.00195312   9 t-inv F
  0.250000  0.250000  0.000000    0.00195312  10 t-inv F
  0.375000  0.250000  0.000000    0.00195312  11 t-inv F
  0.500000  0.250000  0.000000    0.00195312  12 t-inv F
  0.375000  0.375000  0.000000    0.00195312  13 t-inv F
  0.500000  0.375000  0.000000    0.00195312  14 t-inv F
  0.500000  0.500000  0.000000    0.00195312  15 t-inv F
  0.125000  0.125000  0.125000    0.00195312  16 t-inv F
  0.250000  0.125000  0.125000    0.00195312  17 t-inv F
  0.375000  0.125000  0.125000    0.00195312  18 t-inv F
  0.500000  0.125000  0.125000    0.00195312  19 t-inv F
  0.250000  0.250000  0.125000    0.00195312  20 t-inv F
  0.375000  0.250000  0.125000    0.00195312  21 t-inv F
  0.500000  0.250000  0.125000    0.00195312  22 t-inv F
  0.375000  0.375000  0.125000    0.00195312  23 t-inv F
  0.500000  0.375000  0.125000    0.00195312  24 t-inv F
  0.500000  0.500000  0.125000    0.00195312  25 t-inv F
  0.250000  0.250000  0.250000    0.00195312  26 t-inv F
  0.375000  0.250000  0.250000    0.00195312  27 t-inv F
  0.500000  0.250000  0.250000    0.00195312  28 t-inv F
  0.375000  0.375000  0.250000    0.00195312  29 t-inv F
  0.500000  0.375000  0.250000    0.00195312  30 t-inv F
  0.500000  0.500000  0.250000    0.00195312  31 t-inv F
  0.375000  0.375000  0.375000    0.00195312  32 t-inv F
  0.500000  0.375000  0.375000    0.00195312  33 t-inv F
  0.500000  0.500000  0.375000    0.00195312  34 t-inv F
  0.500000  0.500000  0.500000    0.00195312  35 t-inv F
 -0.125000 -0.000000  0.000000    0.00195312   2 t-inv F
  0.000000  0.125000  0.000000    0.00195312   2 t-inv F
  0.000000 -0.125000 -0.000000    0.00195312   2 t-inv F
  0.000000  0.000000  0.125000    0.00195312   2 t-inv F
 -0.000000  0.000000 -0.125000    0.00195312   2 t-inv F
 -0.250000 -0.000000  0.000000    0.00195312   3 t-inv F
  0.000000  0.250000  0.000000    0.00195312   3 t-inv F
[...]
 Gauss-broadening in eV      SIGMA  =   0.05

  energy-cutoff  :      243.34
  volume of cell :      127.11
      direct lattice vectors                 reciprocal lattice vectors
     5.027920000  0.000000000  0.000000000     0.198889402 -0.000000000  0.000000000
     0.000000000  5.027920000  0.000000000     0.000000000  0.198889402  0.000000000
     0.000000000  0.000000000  5.027920000    -0.000000000 -0.000000000  0.198889402

[...]

 old parameters found on file WAVECAR:
  energy-cutoff  :      243.34
  volume of cell :      127.11
      direct lattice vectors                 reciprocal lattice vectors
     5.027920000  0.000000000  0.000000000     0.198889402 -0.000000000  0.000000000
     0.000000000  5.027920000  0.000000000     0.000000000  0.198889402  0.000000000
     0.000000000  0.000000000  5.027920000    -0.000000000 -0.000000000  0.198889402

  length of vectors

 k-points in units of 2pi/SCALE and weight: Automatic kpoint scheme
   0.00000000  0.00000000  0.00000000       0.002
   0.02486118 -0.00000000  0.00000000       0.012
   0.04972235 -0.00000000  0.00000000       0.012
   0.07458353 -0.00000000  0.00000000       0.012
   0.09944470 -0.00000000  0.00000000       0.006
   0.02486118  0.02486118  0.00000000       0.023
   0.04972235  0.02486118  0.00000000       0.047
   0.07458353  0.02486118  0.00000000       0.047
   0.09944470  0.02486118  0.00000000       0.023
   0.04972235  0.04972235  0.00000000       0.023
   0.07458353  0.04972235  0.00000000       0.047
   0.09944470  0.04972235  0.00000000       0.023
   0.07458353  0.07458353  0.00000000       0.023
   0.09944470  0.07458353  0.00000000       0.023
   0.09944470  0.09944470  0.00000000       0.006
   0.02486118  0.02486118  0.02486118       0.016
   0.04972235  0.02486118  0.02486118       0.047
   0.07458353  0.02486118  0.02486118       0.047
   0.09944470  0.02486118  0.02486118       0.023
   0.04972235  0.04972235  0.02486118       0.047
   0.07458353  0.04972235  0.02486118       0.094
   0.09944470  0.04972235  0.02486118       0.047
   0.07458353  0.07458353  0.02486118       0.047
   0.09944470  0.07458353  0.02486118       0.047
   0.09944470  0.09944470  0.02486118       0.012
   0.04972235  0.04972235  0.04972235       0.016
   0.07458353  0.04972235  0.04972235       0.047
   0.09944470  0.04972235  0.04972235       0.023
   0.07458353  0.07458353  0.04972235       0.047
   0.09944470  0.07458353  0.04972235       0.047
   0.09944470  0.09944470  0.04972235       0.012
   0.07458353  0.07458353  0.07458353       0.016
   0.09944470  0.07458353  0.07458353       0.023
   0.09944470  0.09944470  0.07458353       0.012
   0.09944470  0.09944470  0.09944470       0.002

 k-points in reciprocal lattice and weights: Automatic kpoint scheme
   0.00000000  0.00000000  0.00000000       0.002
   0.12500000  0.00000000  0.00000000       0.012
   0.25000000  0.00000000  0.00000000       0.012
   0.37500000  0.00000000  0.00000000       0.012
   0.50000000  0.00000000  0.00000000       0.006
   0.12500000  0.12500000  0.00000000       0.023
   0.25000000  0.12500000  0.00000000       0.047
   0.37500000  0.12500000  0.00000000       0.047
   0.50000000  0.12500000  0.00000000       0.023
   0.25000000  0.25000000  0.00000000       0.023
   0.37500000  0.25000000  0.00000000       0.047
   0.50000000  0.25000000  0.00000000       0.023
   0.37500000  0.37500000  0.00000000       0.023
   0.50000000  0.37500000  0.00000000       0.023
   0.50000000  0.50000000  0.00000000       0.006
   0.12500000  0.12500000  0.12500000       0.016
   0.25000000  0.12500000  0.12500000       0.047
   0.37500000  0.12500000  0.12500000       0.047
   0.50000000  0.12500000  0.12500000       0.023
   0.25000000  0.25000000  0.12500000       0.047
   0.37500000  0.25000000  0.12500000       0.094
   0.50000000  0.25000000  0.12500000       0.047
   0.37500000  0.37500000  0.12500000       0.047
   0.50000000  0.37500000  0.12500000       0.047
   0.50000000  0.50000000  0.12500000       0.012
   0.25000000  0.25000000  0.25000000       0.016
   0.37500000  0.25000000  0.25000000       0.047
   0.50000000  0.25000000  0.25000000       0.023
   0.37500000  0.37500000  0.25000000       0.047
   0.50000000  0.37500000  0.25000000       0.047
   0.50000000  0.50000000  0.25000000       0.012
   0.37500000  0.37500000  0.37500000       0.016
   0.50000000  0.37500000  0.37500000       0.023
   0.50000000  0.50000000  0.37500000       0.012
   0.50000000  0.50000000  0.50000000       0.002

 position of ions in fractional coordinates (direct lattice)
   0.00000000  0.00000000  0.00000000
   0.50000000  0.50000000  0.50000000

 position of ions in cartesian coordinates  (Angst):
   0.00000000  0.00000000  0.00000000
   2.51396000  2.51396000  2.51396000

 k-point     1 :   0.0000 0.0000 0.0000  plane waves:    1045
 k-point     2 :   0.1250 0.0000 0.0000  plane waves:    1093
 k-point     3 :   0.2500 0.0000 0.0000  plane waves:    1097
 k-point     4 :   0.3750 0.0000 0.0000  plane waves:    1101
 k-point     5 :   0.5000 0.0000 0.0000  plane waves:    1108
 k-point     6 :   0.1250 0.1250 0.0000  plane waves:    1095
 k-point     7 :   0.2500 0.1250 0.0000  plane waves:    1102
 k-point     8 :   0.3750 0.1250 0.0000  plane waves:    1095
 k-point     9 :   0.5000 0.1250 0.0000  plane waves:    1110
 k-point    10 :   0.2500 0.2500 0.0000  plane waves:    1103
 k-point    11 :   0.3750 0.2500 0.0000  plane waves:    1094
 k-point    12 :   0.5000 0.2500 0.0000  plane waves:    1104
 k-point    13 :   0.3750 0.3750 0.0000  plane waves:    1097
 k-point    14 :   0.5000 0.3750 0.0000  plane waves:    1096
 k-point    15 :   0.5000 0.5000 0.0000  plane waves:    1092
 k-point    16 :   0.1250 0.1250 0.1250  plane waves:    1096
 k-point    17 :   0.2500 0.1250 0.1250  plane waves:    1096
 k-point    18 :   0.3750 0.1250 0.1250  plane waves:    1095
 k-point    19 :   0.5000 0.1250 0.1250  plane waves:    1104
 k-point    20 :   0.2500 0.2500 0.1250  plane waves:    1103
 k-point    21 :   0.3750 0.2500 0.1250  plane waves:    1102
 k-point    22 :   0.5000 0.2500 0.1250  plane waves:    1104
 k-point    23 :   0.3750 0.3750 0.1250  plane waves:    1093
 k-point    24 :   0.5000 0.3750 0.1250  plane waves:    1088
 k-point    25 :   0.5000 0.5000 0.1250  plane waves:    1092
 k-point    26 :   0.2500 0.2500 0.2500  plane waves:    1093
 k-point    27 :   0.3750 0.2500 0.2500  plane waves:    1098
 k-point    28 :   0.5000 0.2500 0.2500  plane waves:    1106
 k-point    29 :   0.3750 0.3750 0.2500  plane waves:    1089
 k-point    30 :   0.5000 0.3750 0.2500  plane waves:    1074
 k-point    31 :   0.5000 0.5000 0.2500  plane waves:    1084
 k-point    32 :   0.3750 0.3750 0.3750  plane waves:    1082
 k-point    33 :   0.5000 0.3750 0.3750  plane waves:    1088
 k-point    34 :   0.5000 0.5000 0.3750  plane waves:    1080
 k-point    35 :   0.5000 0.5000 0.5000  plane waves:    1088

 maximum and minimum number of plane-waves per node :      1110     1045

 maximum number of plane-waves:      1110
 maximum index in each direction:
   IXMAX=    6   IYMAX=    6   IZMAX=    6
   IXMIN=   -6   IYMIN=   -6   IZMIN=   -6

 serial   3D FFT for wavefunctions
 parallel 3D FFT for charge:
    minimum data exchange during FFTs selected (reduces bandwidth)

 Broyden mixing: mesh for mixing (old mesh)
   NGX = 13   NGY = 13   NGZ = 13
  (NGX  = 40   NGY  = 40   NGZ  = 40)
  gives a total of   2197 points

 charge density for first step will be calculated from the start-wavefunctions

 Maximum index for augmentation-charges          293 (set IRDMAX)

 initial charge from wavefunction
 First call to EWALD:  gamma=   0.353
 Maximum number of real-space cells 3x 3x 3
 Maximum number of reciprocal cells 3x 3x 3

--------------------------------------- Ionic step        1  -------------------------------------------

--------------------------------------- Iteration      1(   1)  ---------------------------------------

 eigenvalue-minimisations  :  2256
 total energy-change (2. order) :-0.3824543E+01  (-0.1312283E-05)
 number of electron      20.0000152 magnetization
 augmentation part       -3.7065210 magnetization

 Broyden mixing:
  rms(total) = 0.29782E-03    rms(broyden)= 0.29782E-03
  rms(prec ) = 0.67543E-03
  weight for this iteration     100.00

 Free energy of the ion-electron system (eV)
  alpha Z        PSCENC =        82.58458896
  Ewald energy   TEWEN  =     -1042.26374757
  -Hartree energ DENC   =      -242.71835141
  -exchange      EXHF   =         0.00000000
  -V(xc)+E(xc)   XCENC  =        48.87856786
  PAW double counting   =      1166.48026282    -1163.83095416
  entropy T*S    EENTRO =        -0.00390370
  eigenvalues    EBANDS =      -254.64363482
  atomic energy  EATOM  =      1401.69262872
  Solvation  Ediel_sol  =         0.00000000
  free energy    TOTEN  =        -3.82454329 eV

  energy without entropy =       -3.82063959  energy(sigma->0) =       -3.82259144

--------------------------------------- Iteration      1(   2)  ---------------------------------------

 eigenvalue-minimisations  :  1824
 total energy-change (2. order) : 0.6697719E-06  (-0.9850351E-07)
 number of electron      20.0000152 magnetization
 augmentation part       -3.7065210 magnetization

 Free energy of the ion-electron system (eV)
  alpha Z        PSCENC =        82.58458896
  Ewald energy   TEWEN  =     -1042.26374757
  -Hartree energ DENC   =      -242.70939530
  -exchange      EXHF   =         0.00000000
  -V(xc)+E(xc)   XCENC  =        48.87816480
  PAW double counting   =      1166.48667976    -1163.83826388
  entropy T*S    EENTRO =        -0.00390336
  eigenvalues    EBANDS =      -254.65129476
  atomic energy  EATOM  =      1401.69262872
  Solvation  Ediel_sol  =         0.00000000
  free energy    TOTEN  =        -3.82454262 eV

  energy without entropy =       -3.82063926  energy(sigma->0) =       -3.82259094

 average (electrostatic) potential at core
  the test charge radii are     1.2192
  (the norm of the test charge is              1.0000)
       1 -39.4739       2 -39.4739

 E-fermi :   1.5734     XC(G=0):  -7.3818     alpha+bet : -6.7160

 val. band max:        1.5717908853   @ k =   0.3750   0.3750   0.3750
 cond. band min:       1.5783167673   @ k =   0.3750   0.2500   0.2500
 fundamental gap:      0.0065258820
 Fermi energy:         1.5734402600

 k-point     1 :       0.0000    0.0000    0.0000
  band No.  band energies     occupation
      1     -27.2816      2.00000
      2     -27.2089      2.00000
      3     -12.5460      2.00000
      4     -12.5460      2.00000
      5     -12.5460      2.00000
      6     -12.2362      2.00000
      7     -12.2362      2.00000
      8     -12.2362      2.00000
      9      -1.1278      2.00000
     10       1.0842      2.00000
     11       1.0842      2.00000
     12       3.4390      0.00000
     13       3.4390      0.00000
     14       3.4390      0.00000
     15       4.8268      0.00000
     16       4.8268      0.00000
     17       5.9344      0.00000
     18       5.9344      0.00000
     19       5.9344      0.00000
     20       6.3075      0.00000
     21       6.3075      0.00000
     22       6.3075      0.00000
     23       8.5268      0.00000
     24       8.5268      0.00000
     25       8.5268      0.00000
     26       8.9562      0.00000
     27      12.4604      0.00000
     28      13.1127      0.00000
     29      13.1127      0.00000
     30      13.8335      0.00000
     31      13.8335      0.00000
     32      14.3718      0.00000
     33      14.3718      0.00000
     34      14.3718      0.00000
     35      17.4018      0.00000
     36      17.4018      0.00000
     37      17.4018      0.00000
     38      17.5987      0.00000
     39      19.1707      0.00000
     40      19.1707      0.00000
     41      19.1707      0.00000
     42      20.1145      0.00000
     43      20.1145      0.00000
     44      20.1145      0.00000
     45      20.4587      0.00000
     46      21.5641      0.00000
     47      21.5641      0.00000
     48      21.5642      0.00000

[...]

 k-point    35 :       0.5000    0.5000    0.5000
  band No.  band energies     occupation
      1     -27.2371      2.00000
      2     -27.2371      2.00000
      3     -12.4605      2.00000
      4     -12.4605      2.00000
      5     -12.4605      2.00000
      6     -12.4605      2.00000
      7     -12.4605      2.00000
      8     -12.4605      2.00000
      9       2.1314      0.00000
     10       2.1314      0.00000
     11       2.1314      0.00000
     12       2.1314      0.00000
     13       2.1314      0.00000
     14       2.1314      0.00000
     15       5.3735      0.00000
     16       5.3735      0.00000
     17       5.4674      0.00000
     18       5.4674      0.00000
     19       5.4674      0.00000
     20       5.4674      0.00000
     21       8.3389      0.00000
     22       8.3389      0.00000
     23       8.3389      0.00000
     24       8.3389      0.00000
     25       8.3389      0.00000
     26       8.3389      0.00000
     27      12.9031      0.00000
     28      12.9031      0.00000
     29      12.9031      0.00000
     30      12.9031      0.00000
     31      12.9031      0.00000
     32      12.9031      0.00000
     33      14.5173      0.00000
     34      14.5173      0.00000
     35      14.5173      0.00000
     36      14.5173      0.00000
     37      14.5173      0.00000
     38      14.5173      0.00000
     39      18.6596      0.00000
     40      18.6596      0.00000
     41      21.3101      0.00000
     42      21.3101      0.00000
     43      21.3101      0.00000
     44      21.3101      0.00000
     45      21.5580      0.00000
     46      21.5580      0.00000
     47      21.5580      0.00000
     48      21.5580      0.00000

 soft charge-density along one line, spin component           1
         0         1         2         3         4         5         6         7         8         9
 total charge-density along one line

------------------------ aborting loop because EDIFF is reached ----------------------------------------

  FORCE on cell =-STRESS in cart. coord.  units (eV):
  Direction    XX          YY          ZZ          XY          YZ          ZX
  Alpha Z    82.58459    82.58459    82.58459
  Ewald    -347.42122  -347.42122  -347.42122    -0.00000    -0.00000    -0.00000
  Hartree    80.89794    80.89794    80.89794    -0.00000    -0.00000    -0.00000
  E(xc)     -64.97946   -64.97946   -64.97946     0.00000     0.00000    -0.00000
  Local      64.06448    64.06448    64.06448    -0.00000     0.00000     0.00000
  n-local   -73.47559   -77.43829   -83.15156     0.54037    -0.35076     0.14684
  augment   -19.04848   -19.04848   -19.04848     0.00000     0.00000    -0.00000
  Kinetic   277.22978   279.03080   289.16313    -0.32917     2.08891     0.29166
  Fock        0.00000     0.00000     0.00000     0.00000     0.00000     0.00000
  Total      -0.11607    -0.11607    -0.11607    -0.00000     0.00000    -0.00000
  in kB      -1.46311    -1.46311    -1.46311    -0.00000     0.00000    -0.00000

 VOLUME and BASIS-vectors are now :
  energy-cutoff  :      243.34
  volume of cell :      127.11
      direct lattice vectors                 reciprocal lattice vectors
     5.027920000  0.000000000  0.000000000     0.198889402 -0.000000000  0.000000000
     0.000000000  5.027920000  0.000000000     0.000000000  0.198889402  0.000000000
     0.000000000  0.000000000  5.027920000    -0.000000000 -0.000000000  0.198889402

  length of vectors
     5.027920000  5.027920000  5.027920000     0.198889402  0.198889402  0.198889402

 FORCES acting on ions
    electron-ion (+dipol)            ewald-force                    non-local-force                 convergence-correction
   -.923E-14 -.441E-14 0.264E-15   -.379E-15 -.236E-14 -.174E-14   -.646E-25 -.120E-25 -.160E-24   0.168E-13 -.146E-15 0.760E-14
   0.768E-13 0.546E-12 0.157E-12   0.908E-15 0.182E-14 0.125E-14   0.518E-25 -.222E-25 -.592E-26   -.972E-14 -.646E-14 -.914E-14
   0.676E-13 0.542E-12 0.157E-12   0.529E-15 -.536E-15 -.492E-15   -.128E-25 -.342E-25 -.166E-24   0.711E-14 -.660E-14 -.154E-14

 POSITION                                       TOTAL-FORCE (eV/Angst)
      0.00000      0.00000      0.00000        -0.000000      0.000000      0.000000
      2.51396      2.51396      2.51396         0.000000     -0.000000     -0.000000
    total drift:                                0.000000      0.000000      0.000000

  FREE ENERGIE OF THE ION-ELECTRON SYSTEM (eV)
  free  energy   TOTEN  =        -3.82454262 eV

  energy  without entropy=       -3.82063926  energy(sigma->0) =       -3.82259094

 writing wavefunctions