 vasp.6.4.3 19Mar24 (build Jun 26 2024 13:02:28) complex

 executed on             LinuxIFC date 2025.08.08  19:05:35

 INCAR:
   ENCUT = 199.0534
   IBRION = -1
   ISMEAR = 0
   ISYM = 2
   LCHARG = True
   LWAVE = True
   SIGMA = 0.05
   SYSTEM = Xe

 POTCAR:  PAW_PBE Xe 07Sep2000
|           W    W    AA    RRRRR   N    N  II  N    N   GGGG   !!!           |
|           W    W   A  A   R    R  NN   N  II  NN   N  G    G  !!!           |
|           W    W  A    A  R    R  N N  N  II  N N  N  G       !!!           |
|           W WW W  AAAAAA  RRRRR   N  N N  II  N  N N  G  GGG   !            |
|           WW  WW  A    A  R   R   N   NN  II  N   NN  G    G                |
|           W    W  A    A  R    R  N    N  II  N    N   GGGG   !!!           |
|     For optimal performance we recommend to set                             |
|       NCORE = 2 up to number-of-cores-per-socket                            |
|     This setting can greatly improve the performance of VASP for DFT.       |
|     The default, NCORE=1 might be grossly inefficient on modern             |
|     multi-core architectures or massively parallel machines. Do your        |
|     Unfortunately you need to use the default for GW and RPA                |
|     calculations (for HF NCORE is supported but not extensively tested      |
|     yet).                                                                   |

 POTCAR:  PAW_PBE Xe 07Sep2000
   VRHFIN =Xe: s2p6

   TITEL  = PAW_PBE Xe 07Sep2000
   POMASS =  131.294; ZVAL   =    8.000    mass and valenz
   ENMAX  =  153.118; ENMIN  =  114.839 eV

PAW_PBE Xe 07Sep2000                    :

 POSCAR: Xe4
  positions in direct lattice

 exchange-correlation table for PE
   RHO(1)=    0.500       N(1)  =     2000
   RHO(2)=  100.500       N(2)  =     4000

 ion  position               nearest neighbor table
   1  0.000  0.000  0.000-
   2  0.000  0.500  0.500-
   3  0.500  0.000  0.500-
   4  0.500  0.500  0.000-

  LATTYP: Found a simple cubic cell.
 ALAT       =     7.0548200000

  Lattice vectors:

 A1 = (   7.0548200000,   0.0000000000,   0.0000000000)
 A2 = (   0.0000000000,   7.0548200000,   0.0000000000)
 A3 = (   0.0000000000,   0.0000000000,   7.0548200000)

Analysis of symmetry for initial positions (statically):
 Subroutine PRICEL returns following result:

  LATTYP: Found a face centered cubic cell.
 ALAT       =     7.0548200000

[...]

   4 primitive cells build up your supercell.

 Routine SETGRP: Setting up the symmetry group for a
 simple cubic supercell.

 Subroutine GETGRP returns: Found 48 space group operations
 (whereof 48 operations were pure point group operations)
 out of a pool of 48 trial point group operations.

The static configuration has the point symmetry O_h .

Analysis of symmetry for dynamics (positions and initial velocities):
 Subroutine PRICEL returns following result:

  LATTYP: Found a face centered cubic cell.
 ALAT       =     7.0548200000

  Lattice vectors:

 A1 = (   3.5274100000,  -3.5274100000,   0.0000000000)
 A2 = (   3.5274100000,   0.0000000000,   3.5274100000)
 A3 = (  -0.0000000000,  -3.5274100000,   3.5274100000)

   4 primitive cells build up your supercell.

 Routine SETGRP: Setting up the symmetry group for a
 simple cubic supercell.

 Subroutine GETGRP returns: Found 48 space group operations
 (whereof 48 operations were pure point group operations)
 out of a pool of 48 trial point group operations.

The dynamic configuration has the point symmetry O_h .

 Subroutine INISYM returns: Found 48 space group operations
 (whereof 48 operations are pure point group operations),
 and found     4 'primitive' translations

                                     Primitive cell

  volume of cell :      87.7805

  direct lattice vectors                    reciprocal lattice vectors
     3.527410000 -3.527410000  0.000000000     0.141747061 -0.141747061 -0.141747061
     3.527410000  0.000000000  3.527410000     0.141747061  0.141747061  0.141747061
    -0.000000000 -3.527410000  3.527410000    -0.141747061 -0.141747061  0.141747061

  length of vectors
     4.988511062  4.988511062  4.988511062     0.245513111  0.245513111  0.245513111

  position of ions in fractional coordinates (direct lattice)
     0.000000000  0.000000000  0.000000000

  ion indices of the primitive-cell ions
   primitive index   ion index
                 1           1

 KPOINTS: Automatic kpoint scheme

Automatic generation of k-mesh.
 Grid dimensions read from file:
 generate k-points for:    8    8    8

 Generating k-lattice:

  Cartesian coordinates                     Fractional coordinates (reciprocal lattice)
     0.017718383 -0.000000000  0.000000000     0.125000000  0.000000000  0.000000000
     0.000000000  0.017718383  0.000000000     0.000000000  0.125000000  0.000000000
    -0.000000000 -0.000000000  0.017718383     0.000000000  0.000000000  0.125000000

  Length of vectors
     0.017718383  0.017718383  0.017718383

  Shift w.r.t. Gamma in fractional coordinates (k-lattice)
     0.000000000  0.000000000  0.000000000

 Subroutine IBZKPT returns following result:

 Found     35 irreducible k-points:

 Following reciprocal coordinates:
            Coordinates               Weight
  0.000000  0.000000  0.000000      1.000000
  0.125000  0.000000  0.000000      6.000000
  0.250000  0.000000  0.000000      6.000000
  0.375000  0.000000  0.000000      6.000000
  0.500000  0.000000  0.000000      3.000000
  0.125000  0.125000  0.000000     12.000000
  0.250000  0.125000  0.000000     24.000000
  0.375000  0.125000  0.000000     24.000000
  0.500000  0.125000  0.000000     12.000000
  0.250000  0.250000  0.000000     12.000000
  0.375000  0.250000  0.000000     24.000000
  0.500000  0.250000  0.000000     12.000000
  0.375000  0.375000  0.000000     12.000000
  0.500000  0.375000  0.000000     12.000000
  0.500000  0.500000  0.000000      3.000000
  0.125000  0.125000  0.125000      8.000000
  0.250000  0.125000  0.125000     24.000000
  0.375000  0.125000  0.125000     24.000000
  0.500000  0.125000  0.125000     12.000000
  0.250000  0.250000  0.125000     24.000000
  0.375000  0.250000  0.125000     48.000000
  0.500000  0.250000  0.125000     24.000000
  0.375000  0.375000  0.125000     24.000000
  0.500000  0.375000  0.125000     24.000000
  0.500000  0.500000  0.125000      6.000000
  0.250000  0.250000  0.250000      8.000000
  0.375000  0.250000  0.250000     24.000000
  0.500000  0.250000  0.250000     12.000000
  0.375000  0.375000  0.250000     24.000000
  0.500000  0.375000  0.250000     24.000000
  0.500000  0.500000  0.250000      6.000000
  0.375000  0.375000  0.375000      8.000000
  0.500000  0.375000  0.375000     12.000000
  0.500000  0.500000  0.375000      6.000000
  0.500000  0.500000  0.500000      1.000000

 Following cartesian coordinates:
            Coordinates               Weight
  0.000000  0.000000  0.000000      1.000000
  0.017718 -0.000000  0.000000      6.000000
  0.035437 -0.000000  0.000000      6.000000
  0.053155 -0.000000  0.000000      6.000000
  0.070874 -0.000000  0.000000      3.000000
  0.017718  0.017718  0.000000     12.000000
  0.035437  0.017718  0.000000     24.000000
  0.053155  0.017718  0.000000     24.000000
  0.070874  0.017718  0.000000     12.000000
  0.035437  0.035437  0.000000     12.000000
  0.053155  0.035437  0.000000     24.000000
  0.070874  0.035437  0.000000     12.000000
  0.053155  0.053155  0.000000     12.000000
  0.070874  0.053155  0.000000     12.000000
  0.070874  0.070874  0.000000      3.000000
  0.017718  0.017718  0.017718      8.000000
  0.035437  0.017718  0.017718     24.000000
  0.053155  0.017718  0.017718     24.000000
  0.070874  0.017718  0.017718     12.000000
  0.035437  0.035437  0.017718     24.000000
  0.053155  0.035437  0.017718     48.000000
  0.070874  0.035437  0.017718     24.000000
  0.053155  0.053155  0.017718     24.000000
  0.070874  0.053155  0.017718     24.000000
  0.070874  0.070874  0.017718      6.000000
  0.035437  0.035437  0.035437      8.000000
  0.053155  0.035437  0.035437     24.000000
  0.070874  0.035437  0.035437     12.000000
  0.053155  0.053155  0.035437     24.000000
  0.070874  0.053155  0.035437     24.000000
  0.070874  0.070874  0.035437      6.000000
  0.053155  0.053155  0.053155      8.000000
  0.070874  0.053155  0.053155     12.000000
  0.070874  0.070874  0.053155      6.000000
  0.070874  0.070874  0.070874      1.000000

 Subroutine IBZKPT_HF returns following result:

 Found    512 k-points in 1st BZ
 the following    512 k-points will be used (e.g. in the exchange kernel)
 Following reciprocal coordinates:   # in IRBZ
  0.000000  0.000000  0.000000    0.00195312   1 t-inv F
  0.125000  0.000000  0.000000    0.00195312   2 t-inv F
  0.250000  0.000000  0.000000    0.00195312   3 t-inv F
  0.375000  0.000000  0.000000    0.00195312   4 t-inv F
  0.500000  0.000000  0.000000    0.00195312   5 t-inv F
  0.125000  0.125000  0.000000    0.00195312   6 t-inv F
  0.250000  0.125000  0.000000    0.00195312   7 t-inv F
  0.375000  0.125000  0.000000    0.00195312   8 t-inv F
  0.500000  0.125000  0.000000    0.00195312   9 t-inv F
  0.250000  0.250000  0.000000    0.00195312  10 t-inv F
  0.375000  0.250000  0.000000    0.00195312  11 t-inv F
  0.500000  0.250000  0.000000    0.00195312  12 t-inv F
  0.375000  0.375000  0.000000    0.00195312  13 t-inv F
  0.500000  0.375000  0.000000    0.00195312  14 t-inv F
  0.500000  0.500000  0.000000    0.00195312  15 t-inv F
  0.125000  0.125000  0.125000    0.00195312  16 t-inv F
  0.250000  0.125000  0.125000    0.00195312  17 t-inv F
  0.375000  0.125000  0.125000    0.00195312  18 t-inv F
  0.500000  0.125000  0.125000    0.00195312  19 t-inv F
  0.250000  0.250000  0.125000    0.00195312  20 t-inv F
  0.375000  0.250000  0.125000    0.00195312  21 t-inv F
  0.500000  0.250000  0.125000    0.00195312  22 t-inv F
  0.375000  0.375000  0.125000    0.00195312  23 t-inv F
  0.500000  0.375000  0.125000    0.00195312  24 t-inv F
  0.500000  0.500000  0.125000    0.00195312  25 t-inv F
  0.250000  0.250000  0.250000    0.00195312  26 t-inv F
  0.375000  0.250000  0.250000    0.00195312  27 t-inv F
  0.500000  0.250000  0.250000    0.00195312  28 t-inv F
  0.375000  0.375000  0.250000    0.00195312  29 t-inv F
  0.500000  0.375000  0.250000    0.00195312  30 t-inv F
  0.500000  0.500000  0.250000    0.00195312  31 t-inv F
  0.375000  0.375000  0.375000    0.00195312  32 t-inv F
  0.500000  0.375000  0.375000    0.00195312  33 t-inv F
  0.500000  0.500000  0.375000    0.00195312  34 t-inv F
  0.500000  0.500000  0.500000    0.00195312  35 t-inv F
 -0.125000 -0.000000  0.000000    0.00195312   2 t-inv F
  0.000000  0.125000  0.000000    0.00195312   2 t-inv F
  0.000000 -0.125000 -0.000000    0.00195312   2 t-inv F
  0.000000  0.000000  0.125000    0.00195312   2 t-inv F
 -0.000000  0.000000 -0.125000    0.00195312   2 t-inv F
 -0.250000 -0.000000  0.000000    0.00195312   3 t-inv F
  0.000000  0.250000  0.000000    0.00195312   3 t-inv F
  0.000000 -0.250000 -0.000000    0.00195312   3 t-inv F
  0.000000  0.000000  0.250000    0.00195312   3 t-inv F
[...]
     7.054820000  0.000000000  0.000000000     0.141747061 -0.000000000  0.000000000
     0.000000000  7.054820000  0.000000000     0.000000000  0.141747061  0.000000000
     0.000000000  0.000000000  7.054820000    -0.000000000 -0.000000000  0.141747061

  length of vectors

 k-points in units of 2pi/SCALE and weight: Automatic kpoint scheme
   0.00000000  0.00000000  0.00000000       0.002
   0.01771838 -0.00000000  0.00000000       0.012
   0.03543677 -0.00000000  0.00000000       0.012
   0.05315515 -0.00000000  0.00000000       0.012
   0.07087353 -0.00000000  0.00000000       0.006
   0.01771838  0.01771838  0.00000000       0.023
   0.03543677  0.01771838  0.00000000       0.047
   0.05315515  0.01771838  0.00000000       0.047
   0.07087353  0.01771838  0.00000000       0.023
   0.03543677  0.03543677  0.00000000       0.023
   0.05315515  0.03543677  0.00000000       0.047
   0.07087353  0.03543677  0.00000000       0.023
   0.05315515  0.05315515  0.00000000       0.023
   0.07087353  0.05315515  0.00000000       0.023
   0.07087353  0.07087353  0.00000000       0.006
   0.01771838  0.01771838  0.01771838       0.016
   0.03543677  0.01771838  0.01771838       0.047
   0.05315515  0.01771838  0.01771838       0.047
   0.07087353  0.01771838  0.01771838       0.023
   0.03543677  0.03543677  0.01771838       0.047
   0.05315515  0.03543677  0.01771838       0.094
   0.07087353  0.03543677  0.01771838       0.047
   0.05315515  0.05315515  0.01771838       0.047
   0.07087353  0.05315515  0.01771838       0.047
   0.07087353  0.07087353  0.01771838       0.012
   0.03543677  0.03543677  0.03543677       0.016
   0.05315515  0.03543677  0.03543677       0.047
   0.07087353  0.03543677  0.03543677       0.023
   0.05315515  0.05315515  0.03543677       0.047
   0.07087353  0.05315515  0.03543677       0.047
   0.07087353  0.07087353  0.03543677       0.012
   0.05315515  0.05315515  0.05315515       0.016
   0.07087353  0.05315515  0.05315515       0.023
   0.07087353  0.07087353  0.05315515       0.012
   0.07087353  0.07087353  0.07087353       0.002

 k-points in reciprocal lattice and weights: Automatic kpoint scheme
   0.00000000  0.00000000  0.00000000       0.002
   0.12500000  0.00000000  0.00000000       0.012
   0.25000000  0.00000000  0.00000000       0.012
   0.37500000  0.00000000  0.00000000       0.012
   0.50000000  0.00000000  0.00000000       0.006
   0.12500000  0.12500000  0.00000000       0.023
   0.25000000  0.12500000  0.00000000       0.047
   0.37500000  0.12500000  0.00000000       0.047
   0.50000000  0.12500000  0.00000000       0.023
   0.25000000  0.25000000  0.00000000       0.023
   0.37500000  0.25000000  0.00000000       0.047
   0.50000000  0.25000000  0.00000000       0.023
   0.37500000  0.37500000  0.00000000       0.023
   0.50000000  0.37500000  0.00000000       0.023
   0.50000000  0.50000000  0.00000000       0.006
   0.12500000  0.12500000  0.12500000       0.016
   0.25000000  0.12500000  0.12500000       0.047
   0.37500000  0.12500000  0.12500000       0.047
   0.50000000  0.12500000  0.12500000       0.023
   0.25000000  0.25000000  0.12500000       0.047
   0.37500000  0.25000000  0.12500000       0.094
   0.50000000  0.25000000  0.12500000       0.047
   0.37500000  0.37500000  0.12500000       0.047
   0.50000000  0.37500000  0.12500000       0.047
   0.50000000  0.50000000  0.12500000       0.012
   0.25000000  0.25000000  0.25000000       0.016
   0.37500000  0.25000000  0.25000000       0.047
   0.50000000  0.25000000  0.25000000       0.023
   0.37500000  0.37500000  0.25000000       0.047
   0.50000000  0.37500000  0.25000000       0.047
   0.50000000  0.50000000  0.25000000       0.012
   0.37500000  0.37500000  0.37500000       0.016
   0.50000000  0.37500000  0.37500000       0.023
   0.50000000  0.50000000  0.37500000       0.012
   0.50000000  0.50000000  0.50000000       0.002

 position of ions in fractional coordinates (direct lattice)
   0.00000000  0.00000000  0.00000000
   0.00000000  0.50000000  0.50000000
   0.50000000  0.00000000  0.50000000
   0.50000000  0.50000000  0.00000000

 position of ions in cartesian coordinates  (Angst):
   0.00000000  0.00000000  0.00000000
   0.00000000  3.52741000  3.52741000
   3.52741000  0.00000000  3.52741000
   3.52741000  3.52741000  0.00000000

 k-point     1 :   0.0000 0.0000 0.0000  plane waves:    2205
 k-point     2 :   0.1250 0.0000 0.0000  plane waves:    2228
 k-point     3 :   0.2500 0.0000 0.0000  plane waves:    2252
 k-point     4 :   0.3750 0.0000 0.0000  plane waves:    2240
 k-point     5 :   0.5000 0.0000 0.0000  plane waves:    2240
 k-point     6 :   0.1250 0.1250 0.0000  plane waves:    2225
 k-point     7 :   0.2500 0.1250 0.0000  plane waves:    2239
 k-point     8 :   0.3750 0.1250 0.0000  plane waves:    2236
 k-point     9 :   0.5000 0.1250 0.0000  plane waves:    2232
 k-point    10 :   0.2500 0.2500 0.0000  plane waves:    2241
 k-point    11 :   0.3750 0.2500 0.0000  plane waves:    2236
 k-point    12 :   0.5000 0.2500 0.0000  plane waves:    2244
 k-point    13 :   0.3750 0.3750 0.0000  plane waves:    2226
 k-point    14 :   0.5000 0.3750 0.0000  plane waves:    2228
 k-point    15 :   0.5000 0.5000 0.0000  plane waves:    2216
 k-point    16 :   0.1250 0.1250 0.1250  plane waves:    2244
 k-point    17 :   0.2500 0.1250 0.1250  plane waves:    2249
 k-point    18 :   0.3750 0.1250 0.1250  plane waves:    2229
 k-point    19 :   0.5000 0.1250 0.1250  plane waves:    2228
 k-point    20 :   0.2500 0.2500 0.1250  plane waves:    2235
 k-point    21 :   0.3750 0.2500 0.1250  plane waves:    2237
 k-point    22 :   0.5000 0.2500 0.1250  plane waves:    2236
 k-point    23 :   0.3750 0.3750 0.1250  plane waves:    2241
 k-point    24 :   0.5000 0.3750 0.1250  plane waves:    2236
 k-point    25 :   0.5000 0.5000 0.1250  plane waves:    2232
 k-point    26 :   0.2500 0.2500 0.2500  plane waves:    2238
 k-point    27 :   0.3750 0.2500 0.2500  plane waves:    2243
 k-point    28 :   0.5000 0.2500 0.2500  plane waves:    2232
 k-point    29 :   0.3750 0.3750 0.2500  plane waves:    2259
 k-point    30 :   0.5000 0.3750 0.2500  plane waves:    2242
 k-point    31 :   0.5000 0.5000 0.2500  plane waves:    2268
 k-point    32 :   0.3750 0.3750 0.3750  plane waves:    2257
 k-point    33 :   0.5000 0.3750 0.3750  plane waves:    2252
 k-point    34 :   0.5000 0.5000 0.3750  plane waves:    2260
 k-point    35 :   0.5000 0.5000 0.5000  plane waves:    2272

 maximum and minimum number of plane-waves per node :      2272     2205

 maximum number of plane-waves:      2272
 maximum index in each direction:
   IXMAX=    8   IYMAX=    8   IZMAX=    8
   IXMIN=   -8   IYMIN=   -8   IZMIN=   -8

 serial   3D FFT for wavefunctions
 parallel 3D FFT for charge:
    minimum data exchange during FFTs selected (reduces bandwidth)

 Broyden mixing: mesh for mixing (old mesh)
   NGX = 17   NGY = 17   NGZ = 17
  (NGX  = 48   NGY  = 48   NGZ  = 48)
  gives a total of   4913 points

 charge density for first step will be calculated from the start-wavefunctions

 Maximum index for augmentation-charges          213 (set IRDMAX)

 initial charge from wavefunction
 First call to EWALD:  gamma=   0.251
 Maximum number of real-space cells 3x 3x 3
 Maximum number of reciprocal cells 3x 3x 3

--------------------------------------- Ionic step        1  -------------------------------------------

--------------------------------------- Iteration      1(   1)  ---------------------------------------

 eigenvalue-minimisations  :  3408
 total energy-change (2. order) :-0.1539004E+00  (-0.2578091E-07)
 number of electron      31.9999566 magnetization
 augmentation part       -7.1064101 magnetization

 Broyden mixing:
  rms(total) = 0.24672E-04    rms(broyden)= 0.24635E-04
  rms(prec ) = 0.45462E-04
  weight for this iteration     100.00

 Free energy of the ion-electron system (eV)
  alpha Z        PSCENC =       109.16379400
  Ewald energy   TEWEN  =     -1197.86088956
  -Hartree energ DENC   =      -366.09772553
  -exchange      EXHF   =         0.00000000
  -V(xc)+E(xc)   XCENC  =       -95.06486112
  PAW double counting   =      1521.66101646    -1364.38306778
  entropy T*S    EENTRO =        -0.00000000
  eigenvalues    EBANDS =      -325.57543095
  atomic energy  EATOM  =      1718.00326411
  Solvation  Ediel_sol  =         0.00000000
  free energy    TOTEN  =        -0.15390039 eV

  energy without entropy =       -0.15390039  energy(sigma->0) =       -0.15390039

--------------------------------------- Iteration      1(   2)  ---------------------------------------

 eigenvalue-minimisations  :  2976
 total energy-change (2. order) : 0.5838024E-07  (-0.1236866E-08)
 number of electron      31.9999566 magnetization
 augmentation part       -7.1064101 magnetization

 Free energy of the ion-electron system (eV)
  alpha Z        PSCENC =       109.16379400
  Ewald energy   TEWEN  =     -1197.86088956
  -Hartree energ DENC   =      -366.09678865
  -exchange      EXHF   =         0.00000000
  -V(xc)+E(xc)   XCENC  =       -95.06488885
  PAW double counting   =      1521.65229652    -1364.37425288
  entropy T*S    EENTRO =        -0.00000000
  eigenvalues    EBANDS =      -325.57643502
  atomic energy  EATOM  =      1718.00326411
  Solvation  Ediel_sol  =         0.00000000
  free energy    TOTEN  =        -0.15390033 eV

  energy without entropy =       -0.15390033  energy(sigma->0) =       -0.15390033

 average (electrostatic) potential at core
  the test charge radii are     1.2011
  (the norm of the test charge is              1.0000)
       1   4.2305       2   4.2305       3   4.2305       4   4.2305

 E-fermi :  -6.7918     XC(G=0):  -5.3254     alpha+bet : -0.9246

 val. band max:       -7.0276315327   @ k =   0.0000   0.0000   0.0000
 cond. band min:      -0.8237856515   @ k =   0.0000   0.0000   0.0000
 fundamental gap:      6.2038458812
 Fermi energy:        -6.7918139273

 k-point     1 :       0.0000    0.0000    0.0000
  band No.  band energies     occupation
      1     -18.8498      2.00000
      2     -18.7822      2.00000
      3     -18.7822      2.00000
      4     -18.7822      2.00000
      5      -7.6232      2.00000
      6      -7.6232      2.00000
      7      -7.6232      2.00000
      8      -7.2520      2.00000
      9      -7.2520      2.00000
     10      -7.2520      2.00000
     11      -7.2520      2.00000
     12      -7.2520      2.00000
     13      -7.2520      2.00000
     14      -7.0276      2.00000
     15      -7.0276      2.00000
     16      -7.0276      2.00000
     17      -0.8238      0.00000
     18       0.9569      0.00000
     19       0.9569      0.00000
     20       0.9569      0.00000
     21       1.8399      0.00000
     22       1.8399      0.00000
     23       1.8399      0.00000
     24       3.6479      0.00000
     25       3.6479      0.00000
     26       3.6479      0.00000
     27       3.7376      0.00000
     28       3.7376      0.00000
     29       3.7376      0.00000
     30       5.3894      0.00000
     31       5.3894      0.00000
     32       6.1913      0.00000
     33       6.1913      0.00000
     34       6.1913      0.00000
     35       6.1913      0.00000
     36       6.1913      0.00000
     37       6.1913      0.00000
     38       6.2455      0.00000
     39       6.8139      0.00000
     40       6.8139      0.00000
     41       6.8139      0.00000
     42       7.1879      0.00000
     43       7.1879      0.00000
     44       7.1879      0.00000
     45       7.2938      0.00000
     46       7.2938      0.00000
     47       7.2938      0.00000
     48       7.2938      0.00000

[...]

 k-point    35 :       0.5000    0.5000    0.5000
  band No.  band energies     occupation
      1     -18.7991      2.00000
      2     -18.7991      2.00000
      3     -18.7991      2.00000
      4     -18.7991      2.00000
      5      -7.6742      2.00000
      6      -7.6742      2.00000
      7      -7.6742      2.00000
      8      -7.6742      2.00000
      9      -7.1069      2.00000
     10      -7.1069      2.00000
     11      -7.1069      2.00000
     12      -7.1069      2.00000
     13      -7.1069      2.00000
     14      -7.1069      2.00000
     15      -7.1069      2.00000
     16      -7.1069      2.00000
     17       0.9003      0.00000
     18       0.9003      0.00000
     19       0.9003      0.00000
     20       0.9003      0.00000
     21       2.7025      0.00000
     22       2.7025      0.00000
     23       2.7025      0.00000
     24       2.7025      0.00000
     25       3.4903      0.00000
     26       3.4903      0.00000
     27       3.4903      0.00000
     28       3.4903      0.00000
     29       3.4903      0.00000
     30       3.4903      0.00000
     31       3.4903      0.00000
     32       3.4903      0.00000
     33       6.0480      0.00000
     34       6.0480      0.00000
     35       6.0480      0.00000
     36       6.0480      0.00000
     37       6.7822      0.00000
     38       6.7822      0.00000
     39       6.7822      0.00000
     40       6.7822      0.00000
     41       6.7822      0.00000
     42       6.7822      0.00000
     43       6.7822      0.00000
     44       6.7822      0.00000
     45       7.2902      0.00000
     46       7.2902      0.00000
     47       7.2902      0.00000
     48       7.2902      0.00000

 soft charge-density along one line, spin component           1
         0         1         2         3         4         5         6         7         8         9
 total charge-density along one line

------------------------ aborting loop because EDIFF is reached ----------------------------------------

  FORCE on cell =-STRESS in cart. coord.  units (eV):
  Direction    XX          YY          ZZ          XY          YZ          ZX
  Alpha Z   109.16379   109.16379   109.16379
  Ewald    -399.28714  -399.28714  -399.28714    -0.00000     0.00000     0.00000
  Hartree   122.03174   122.03174   122.03174    -0.00000    -0.00000    -0.00000
  E(xc)    -135.92353  -135.92353  -135.92353     0.00000    -0.00000    -0.00000
  Local     247.55627   247.55627   247.55627     0.00000    -0.00000     0.00000
  n-local  -451.95187  -452.25799  -452.35886     0.09854     0.09061     0.05824
  augment   122.54968   122.54968   122.54968     0.00000     0.00000     0.00000
  Kinetic   385.48233   386.14500   386.37415    -0.20284    -0.19713    -0.12321
  Fock        0.00000     0.00000     0.00000     0.00000     0.00000     0.00000
  Total      -0.09826    -0.09826    -0.09826    -0.00000    -0.00000    -0.00000
  in kB      -0.44837    -0.44837    -0.44837    -0.00000    -0.00000    -0.00000

 VOLUME and BASIS-vectors are now :
  energy-cutoff  :      199.05
  volume of cell :      351.12
      direct lattice vectors                 reciprocal lattice vectors
     7.054820000  0.000000000  0.000000000     0.141747061 -0.000000000  0.000000000
     0.000000000  7.054820000  0.000000000     0.000000000  0.141747061  0.000000000
     0.000000000  0.000000000  7.054820000    -0.000000000 -0.000000000  0.141747061

  length of vectors
     7.054820000  7.054820000  7.054820000     0.141747061  0.141747061  0.141747061

 FORCES acting on ions
    electron-ion (+dipol)            ewald-force                    non-local-force                 convergence-correction
   0.368E-14 0.422E-14 0.508E-14   -.188E-14 -.144E-14 -.250E-15   0.672E-25 -.228E-24 0.284E-24   -.105E-14 0.129E-14 0.908E-15
   0.236E-14 0.876E-13 0.875E-13   -.177E-14 -.230E-15 0.469E-15   -.280E-24 0.333E-25 -.361E-24   -.125E-14 0.152E-14 0.148E-14
   0.849E-13 0.230E-14 -.803E-12   0.165E-14 0.978E-16 0.106E-14   0.124E-24 -.132E-24 0.215E-25   0.339E-14 0.340E-14 0.288E-14
   0.852E-13 -.457E-12 -.625E-12   0.177E-14 0.131E-14 -.134E-14   -.320E-25 -.526E-24 -.252E-24   0.299E-14 0.290E-14 0.208E-14
   0.176E-12 -.363E-12 -.134E-11   -.227E-15 -.264E-15 -.593E-16   -.121E-24 -.852E-24 -.307E-24   0.409E-14 0.912E-14 0.734E-14

 POSITION                                       TOTAL-FORCE (eV/Angst)
      0.00000      0.00000      0.00000        -0.000000     -0.000000      0.000000
      0.00000      3.52741      3.52741        -0.000000      0.000000      0.000000
      3.52741      0.00000      3.52741         0.000000     -0.000000     -0.000000
      3.52741      3.52741      0.00000        -0.000000      0.000000      0.000000
    total drift:                                0.000000     -0.000000     -0.000000

  FREE ENERGIE OF THE ION-ELECTRON SYSTEM (eV)
  free  energy   TOTEN  =        -0.15390033 eV

  energy  without entropy=       -0.15390033  energy(sigma->0) =       -0.15390033

 writing wavefunctions