 vasp.6.4.3 19Mar24 (build Jun 26 2024 13:02:28) complex

 executed on             LinuxIFC date 2025.08.08  18:34:14

 INCAR:
   ENCUT = 337.4293
   IBRION = -1
   ISMEAR = 0
   ISYM = 2
   LCHARG = True
   LWAVE = True
   SIGMA = 0.05
   SYSTEM = Na

 POTCAR:  PAW_PBE Na_pv 19Sep2006
|           W    W    AA    RRRRR   N    N  II  N    N   GGGG   !!!           |
|           W    W   A  A   R    R  NN   N  II  NN   N  G    G  !!!           |
|           W    W  A    A  R    R  N N  N  II  N N  N  G       !!!           |
|           W WW W  AAAAAA  RRRRR   N  N N  II  N  N N  G  GGG   !            |
|           WW  WW  A    A  R   R   N   NN  II  N   NN  G    G                |
|           W    W  A    A  R    R  N    N  II  N    N   GGGG   !!!           |
|     For optimal performance we recommend to set                             |
|       NCORE = 2 up to number-of-cores-per-socket                            |
|     This setting can greatly improve the performance of VASP for DFT.       |
|     The default, NCORE=1 might be grossly inefficient on modern             |
|     multi-core architectures or massively parallel machines. Do your        |
|     Unfortunately you need to use the default for GW and RPA                |
|     calculations (for HF NCORE is supported but not extensively tested      |
|     yet).                                                                   |

 POTCAR:  PAW_PBE Na_pv 19Sep2006
   VRHFIN =Na: p6s1

   TITEL  = PAW_PBE Na_pv 19Sep2006
   POMASS =   22.990; ZVAL   =    7.000    mass and valenz
   ENMAX  =  259.561; ENMIN  =  194.671 eV

PAW_PBE Na_pv 19Sep2006                 :

 POSCAR: Na3
  positions in direct lattice

 exchange-correlation table for PE
   RHO(1)=    0.500       N(1)  =     2000
   RHO(2)=  100.500       N(2)  =     4000

 ion  position               nearest neighbor table
   1  0.000  0.000  0.000-
   2  0.222  0.222  0.222-
   3  0.778  0.778  0.778-

  LATTYP: Found a trigonal (rhomboedric) cell.
 ALAT       =     9.4181300000
 COS(alpha) =     0.9210357209

  Lattice vectors:

 A1 = (   3.6681555051,   0.0000000000,   8.6744341537)
 A2 = (   1.7586878855,   3.2190653506,   8.6744341537)
 A3 = (   0.0000000000,   0.0000000000,   9.4181300000)

Analysis of symmetry for initial positions (statically):
 Subroutine PRICEL returns:
 Original cell was already a primitive cell.

 Routine SETGRP: Setting up the symmetry group for a
 trigonal (rhombohedral) supercell.

 Subroutine GETGRP returns: Found 12 space group operations
 (whereof 12 operations were pure point group operations)
 out of a pool of 12 trial point group operations.

The static configuration has the point symmetry D_3d.

Analysis of symmetry for dynamics (positions and initial velocities):
 Subroutine PRICEL returns:
 Original cell was already a primitive cell.

 Routine SETGRP: Setting up the symmetry group for a
 trigonal (rhombohedral) supercell.

 Subroutine GETGRP returns: Found 12 space group operations
 (whereof 12 operations were pure point group operations)
 out of a pool of 12 trial point group operations.

The dynamic configuration has the point symmetry D_3d.

 Subroutine INISYM returns: Found 12 space group operations
 (whereof 12 operations are pure point group operations),
 and found     1 'primitive' translations

                                     Primitive cell

  volume of cell :     111.2096

  direct lattice vectors                    reciprocal lattice vectors
     3.668155505  0.000000000  8.674434154     0.272616578 -0.148939962  0.000000000
     1.758687886  3.219065351  8.674434154     0.000000000  0.310649176  0.000000000
     0.000000000  0.000000000  9.418130000    -0.251089606 -0.148939962  0.106178190

  length of vectors
     9.418130000  9.418130000  9.418130000     0.310649176  0.310649176  0.310649176

  position of ions in fractional coordinates (direct lattice)
     0.000000000  0.000000000  0.000000000
     0.222220000  0.222220000  0.222220000
     0.777780000  0.777780000  0.777780000

  ion indices of the primitive-cell ions
   primitive index   ion index
                 1           1
                 2           2
                 3           3

 KPOINTS: Automatic kpoint scheme

Automatic generation of k-mesh.
 Grid dimensions read from file:
 generate k-points for:   12   12   12

 Generating k-lattice:

  Cartesian coordinates                     Fractional coordinates (reciprocal lattice)
     0.022718048 -0.012411664  0.000000000     0.083333333  0.000000000  0.000000000
     0.000000000  0.025887431  0.000000000     0.000000000  0.083333333  0.000000000
    -0.020924134 -0.012411664  0.008848183     0.000000000 -0.000000000  0.083333333

  Length of vectors
     0.025887431  0.025887431  0.025887431

  Shift w.r.t. Gamma in fractional coordinates (k-lattice)
     0.000000000  0.000000000  0.000000000

 Subroutine IBZKPT returns following result:

 Found    189 irreducible k-points:

 Following reciprocal coordinates:
            Coordinates               Weight
  0.000000  0.000000  0.000000      1.000000
  0.083333  0.000000  0.000000      6.000000
  0.166667  0.000000  0.000000      6.000000
  0.250000  0.000000  0.000000      6.000000
  0.333333 -0.000000  0.000000      6.000000
  0.416667  0.000000  0.000000      6.000000
  0.500000  0.000000  0.000000      3.000000
  0.083333  0.083333  0.000000      6.000000
  0.166667  0.083333  0.000000     12.000000
  0.250000  0.083333  0.000000     12.000000
  0.333333  0.083333  0.000000     12.000000
  0.416667  0.083333  0.000000     12.000000
  0.500000  0.083333  0.000000     12.000000
 -0.416667  0.083333  0.000000     12.000000
 -0.333333  0.083333  0.000000     12.000000
 -0.250000  0.083333  0.000000     12.000000
 -0.166667  0.083333  0.000000     12.000000
 -0.083333  0.083333  0.000000      6.000000
  0.166667  0.166667  0.000000      6.000000
  0.250000  0.166667  0.000000     12.000000
  0.333333  0.166667  0.000000     12.000000
  0.416667  0.166667  0.000000     12.000000
  0.500000  0.166667  0.000000     12.000000
 -0.416667  0.166667  0.000000     12.000000
 -0.333333  0.166667  0.000000     12.000000
 -0.250000  0.166667  0.000000     12.000000
 -0.166667  0.166667  0.000000      6.000000
  0.250000  0.250000  0.000000      6.000000
  0.333333  0.250000  0.000000     12.000000
  0.416667  0.250000  0.000000     12.000000
  0.500000  0.250000  0.000000     12.000000
 -0.416667  0.250000  0.000000     12.000000
 -0.333333  0.250000  0.000000     12.000000
 -0.250000  0.250000  0.000000      6.000000
  0.333333  0.333333  0.000000      6.000000
  0.416667  0.333333  0.000000     12.000000
  0.500000  0.333333  0.000000     12.000000
 -0.416667  0.333333  0.000000     12.000000
 -0.333333  0.333333  0.000000      6.000000
  0.416667  0.416667  0.000000      6.000000
  0.500000  0.416667  0.000000     12.000000
 -0.416667  0.416667  0.000000      6.000000
  0.500000  0.500000  0.000000      3.000000
  0.083333  0.083333  0.083333      2.000000
  0.166667  0.083333  0.083333      6.000000
  0.250000  0.083333  0.083333      6.000000
  0.333333  0.083333  0.083333      6.000000
  0.416667  0.083333  0.083333      6.000000
  0.500000  0.083333  0.083333      6.000000
 -0.416667  0.083333  0.083333      6.000000
 -0.333333  0.083333  0.083333      6.000000
 -0.250000  0.083333  0.083333      6.000000
 -0.166667  0.083333  0.083333      6.000000
 -0.083333  0.083333  0.083333      6.000000
  0.166667  0.166667  0.083333      6.000000
  0.250000  0.166667  0.083333     12.000000
  0.333333  0.166667  0.083333     12.000000
  0.416667  0.166667  0.083333     12.000000
  0.500000  0.166667  0.083333     12.000000
 -0.416667  0.166667  0.083333     12.000000
[...]
 -0.333333  0.333333  0.333333      6.000000
  0.416667  0.416667  0.333333      6.000000
  0.500000  0.416667  0.333333     12.000000
 -0.416667  0.416667  0.333333     12.000000
 -0.333333  0.416667  0.333333     12.000000
  0.500000  0.500000  0.333333      6.000000
 -0.416667  0.500000  0.333333     12.000000
 -0.333333  0.500000  0.333333      6.000000
 -0.416667 -0.416667  0.333333      6.000000
  0.416667  0.416667  0.416667      2.000000
  0.500000  0.416667  0.416667      6.000000
 -0.416667  0.416667  0.416667      6.000000
  0.500000  0.500000  0.416667      6.000000
 -0.416667  0.500000  0.416667      6.000000
  0.500000  0.500000  0.500000      1.000000

 Following cartesian coordinates:
            Coordinates               Weight
  0.000000  0.000000  0.000000      1.000000
  0.022718 -0.012412  0.000000      6.000000
  0.045436 -0.024823  0.000000      6.000000
  0.068154 -0.037235  0.000000      6.000000
  0.090872 -0.049647  0.000000      6.000000
  0.113590 -0.062058  0.000000      6.000000
  0.136308 -0.074470  0.000000      3.000000
  0.022718  0.013476  0.000000      6.000000
  0.045436  0.001064  0.000000     12.000000
  0.068154 -0.011348  0.000000     12.000000
  0.090872 -0.023759  0.000000     12.000000
  0.113590 -0.036171  0.000000     12.000000
  0.136308 -0.048583  0.000000     12.000000
 -0.113590  0.087946  0.000000     12.000000
 -0.090872  0.075534  0.000000     12.000000
 -0.068154  0.063122  0.000000     12.000000
 -0.045436  0.050711  0.000000     12.000000
 -0.022718  0.038299  0.000000      6.000000
  0.045436  0.026952  0.000000      6.000000
  0.068154  0.014540  0.000000     12.000000
  0.090872  0.002128  0.000000     12.000000
  0.113590 -0.010283  0.000000     12.000000
  0.136308 -0.022695  0.000000     12.000000
 -0.113590  0.113833  0.000000     12.000000
 -0.090872  0.101422  0.000000     12.000000
 -0.068154  0.089010  0.000000     12.000000
 -0.045436  0.076598  0.000000      6.000000
  0.068154  0.040427  0.000000      6.000000
  0.090872  0.028016  0.000000     12.000000
  0.113590  0.015604  0.000000     12.000000
  0.136308  0.003192  0.000000     12.000000
 -0.113590  0.139721  0.000000     12.000000
 -0.090872  0.127309  0.000000     12.000000
 -0.068154  0.114897  0.000000      6.000000
  0.090872  0.053903  0.000000      6.000000
  0.113590  0.041491  0.000000     12.000000
  0.136308  0.029080  0.000000     12.000000
 -0.113590  0.165608  0.000000     12.000000
 -0.090872  0.153196  0.000000      6.000000
  0.113590  0.067379  0.000000      6.000000
  0.136308  0.054967  0.000000     12.000000
 -0.113590  0.191495  0.000000      6.000000
  0.136308  0.080855  0.000000      3.000000
  0.001794  0.001064  0.008848      2.000000
  0.024512 -0.011348  0.008848      6.000000
  0.047230 -0.023759  0.008848      6.000000
  0.069948 -0.036171  0.008848      6.000000
  0.092666 -0.048583  0.008848      6.000000
  0.115384 -0.060994  0.008848      6.000000
 -0.134514  0.075534  0.008848      6.000000
 -0.111796  0.063122  0.008848      6.000000
 -0.089078  0.050711  0.008848      6.000000
 -0.066360  0.038299  0.008848      6.000000
 -0.043642  0.025887  0.008848      6.000000
  0.024512  0.014540  0.008848      6.000000
  0.047230  0.002128  0.008848     12.000000
  0.069948 -0.010283  0.008848     12.000000
  0.092666 -0.022695  0.008848     12.000000
  0.115384 -0.035107  0.008848     12.000000
 -0.134514  0.101422  0.008848     12.000000
[...]
[...]
   0.50000000  0.41666667  0.00000000       0.007
  -0.41666667  0.41666667  0.00000000       0.003
   0.50000000  0.50000000  0.00000000       0.002
   0.08333333  0.08333333  0.08333333       0.001
   0.16666667  0.08333333  0.08333333       0.003
   0.25000000  0.08333333  0.08333333       0.003
   0.33333333  0.08333333  0.08333333       0.003
   0.41666667  0.08333333  0.08333333       0.003
   0.50000000  0.08333333  0.08333333       0.003
  -0.41666667  0.08333333  0.08333333       0.003
  -0.33333333  0.08333333  0.08333333       0.003
  -0.25000000  0.08333333  0.08333333       0.003
  -0.16666667  0.08333333  0.08333333       0.003
  -0.08333333  0.08333333  0.08333333       0.003
   0.16666667  0.16666667  0.08333333       0.003
   0.25000000  0.16666667  0.08333333       0.007
   0.33333333  0.16666667  0.08333333       0.007
   0.41666667  0.16666667  0.08333333       0.007
   0.50000000  0.16666667  0.08333333       0.007
  -0.41666667  0.16666667  0.08333333       0.007
[...]
  -0.33333333  0.33333333  0.33333333       0.003
   0.41666667  0.41666667  0.33333333       0.003
   0.50000000  0.41666667  0.33333333       0.007
  -0.41666667  0.41666667  0.33333333       0.007
  -0.33333333  0.41666667  0.33333333       0.007
   0.50000000  0.50000000  0.33333333       0.003
  -0.41666667  0.50000000  0.33333333       0.007
  -0.33333333  0.50000000  0.33333333       0.003
  -0.41666667 -0.41666667  0.33333333       0.003
   0.41666667  0.41666667  0.41666667       0.001
   0.50000000  0.41666667  0.41666667       0.003
  -0.41666667  0.41666667  0.41666667       0.003
   0.50000000  0.50000000  0.41666667       0.003
  -0.41666667  0.50000000  0.41666667       0.003
   0.50000000  0.50000000  0.50000000       0.001

 position of ions in fractional coordinates (direct lattice)
   0.00000000  0.00000000  0.00000000
   0.22222000  0.22222000  0.22222000
   0.77778000  0.77778000  0.77778000

 position of ions in cartesian coordinates  (Angst):
   0.00000000  0.00000000  0.00000000
   1.20595314  0.71534070  5.94816236
   4.22089025  2.50372465 20.81883594

 k-point     1 :   0.0000 0.0000 0.0000  plane waves:    1569
 k-point     2 :   0.0833 0.0000 0.0000  plane waves:    1571
 k-point     3 :   0.1667 0.0000 0.0000  plane waves:    1576
 k-point     4 :   0.2500 0.0000 0.0000  plane waves:    1569
 k-point     5 :   0.3333-0.0000 0.0000  plane waves:    1561
 k-point     6 :   0.4167 0.0000 0.0000  plane waves:    1564
 k-point     7 :   0.5000 0.0000 0.0000  plane waves:    1574
 k-point     8 :   0.0833 0.0833 0.0000  plane waves:    1575
 k-point     9 :   0.1667 0.0833 0.0000  plane waves:    1575
 k-point    10 :   0.2500 0.0833 0.0000  plane waves:    1579
 k-point    11 :   0.3333 0.0833 0.0000  plane waves:    1566
 k-point    12 :   0.4167 0.0833 0.0000  plane waves:    1564
 k-point    13 :   0.5000 0.0833 0.0000  plane waves:    1561
 k-point    14 :  -0.4167 0.0833 0.0000  plane waves:    1563
 k-point    15 :  -0.3333 0.0833 0.0000  plane waves:    1559
 k-point    16 :  -0.2500 0.0833 0.0000  plane waves:    1566
 k-point    17 :  -0.1667 0.0833 0.0000  plane waves:    1576
 k-point    18 :  -0.0833 0.0833 0.0000  plane waves:    1577
 k-point    19 :   0.1667 0.1667 0.0000  plane waves:    1567
 k-point    20 :   0.2500 0.1667 0.0000  plane waves:    1577
 k-point    21 :   0.3333 0.1667 0.0000  plane waves:    1565
 k-point    22 :   0.4167 0.1667 0.0000  plane waves:    1560
 k-point    23 :   0.5000 0.1667 0.0000  plane waves:    1557
 k-point    24 :  -0.4167 0.1667 0.0000  plane waves:    1552
 k-point    25 :  -0.3333 0.1667 0.0000  plane waves:    1554
 k-point    26 :  -0.2500 0.1667 0.0000  plane waves:    1564
 k-point    27 :  -0.1667 0.1667 0.0000  plane waves:    1559
 k-point    28 :   0.2500 0.2500 0.0000  plane waves:    1570
 k-point    29 :   0.3333 0.2500 0.0000  plane waves:    1563
 k-point    30 :   0.4167 0.2500 0.0000  plane waves:    1561
 k-point    31 :   0.5000 0.2500 0.0000  plane waves:    1559
 k-point    32 :  -0.4167 0.2500 0.0000  plane waves:    1555
 k-point    33 :  -0.3333 0.2500 0.0000  plane waves:    1554
 k-point    34 :  -0.2500 0.2500 0.0000  plane waves:    1564
 k-point    35 :   0.3333 0.3333 0.0000  plane waves:    1565
 k-point    36 :   0.4167 0.3333 0.0000  plane waves:    1565
 k-point    37 :   0.5000 0.3333 0.0000  plane waves:    1560
 k-point    38 :  -0.4167 0.3333 0.0000  plane waves:    1559
 k-point    39 :  -0.3333 0.3333 0.0000  plane waves:    1566
 k-point    40 :   0.4167 0.4167 0.0000  plane waves:    1561
 k-point    41 :   0.5000 0.4167 0.0000  plane waves:    1558
 k-point    42 :  -0.4167 0.4167 0.0000  plane waves:    1562
 k-point    43 :   0.5000 0.5000 0.0000  plane waves:    1562
 k-point    44 :   0.0833 0.0833 0.0833  plane waves:    1569
 k-point    45 :   0.1667 0.0833 0.0833  plane waves:    1572
 k-point    46 :   0.2500 0.0833 0.0833  plane waves:    1582
 k-point    47 :   0.3333 0.0833 0.0833  plane waves:    1571
 k-point    48 :   0.4167 0.0833 0.0833  plane waves:    1557
 k-point    49 :   0.5000 0.0833 0.0833  plane waves:    1558
 k-point    50 :  -0.4167 0.0833 0.0833  plane waves:    1569
 k-point    51 :  -0.3333 0.0833 0.0833  plane waves:    1565
 k-point    52 :  -0.2500 0.0833 0.0833  plane waves:    1563
 k-point    53 :  -0.1667 0.0833 0.0833  plane waves:    1573
 k-point    54 :  -0.0833 0.0833 0.0833  plane waves:    1574
 k-point    55 :   0.1667 0.1667 0.0833  plane waves:    1574
 k-point    56 :   0.2500 0.1667 0.0833  plane waves:    1579
 k-point    57 :   0.3333 0.1667 0.0833  plane waves:    1579
 k-point    58 :   0.4167 0.1667 0.0833  plane waves:    1567
 k-point    59 :   0.5000 0.1667 0.0833  plane waves:    1566
 k-point    60 :  -0.4167 0.1667 0.0833  plane waves:    1559
[...]
 k-point   175 :  -0.3333 0.3333 0.3333  plane waves:    1566
 k-point   176 :   0.4167 0.4167 0.3333  plane waves:    1590
 k-point   177 :   0.5000 0.4167 0.3333  plane waves:    1577
 k-point   178 :  -0.4167 0.4167 0.3333  plane waves:    1579
 k-point   179 :  -0.3333 0.4167 0.3333  plane waves:    1566
 k-point   180 :   0.5000 0.5000 0.3333  plane waves:    1584
 k-point   181 :  -0.4167 0.5000 0.3333  plane waves:    1578
 k-point   182 :  -0.3333 0.5000 0.3333  plane waves:    1562
 k-point   183 :  -0.4167-0.4167 0.3333  plane waves:    1575
 k-point   184 :   0.4167 0.4167 0.4167  plane waves:    1591
 k-point   185 :   0.5000 0.4167 0.4167  plane waves:    1588
 k-point   186 :  -0.4167 0.4167 0.4167  plane waves:    1582
 k-point   187 :   0.5000 0.5000 0.4167  plane waves:    1587
 k-point   188 :  -0.4167 0.5000 0.4167  plane waves:    1582
 k-point   189 :   0.5000 0.5000 0.5000  plane waves:    1606

 maximum and minimum number of plane-waves per node :      1606     1551

 maximum number of plane-waves:      1606
 maximum index in each direction:
   IXMAX=   14   IYMAX=   14   IZMAX=   14
   IXMIN=  -14   IYMIN=  -14   IZMIN=  -14

 serial   3D FFT for wavefunctions
 parallel 3D FFT for charge:
    minimum data exchange during FFTs selected (reduces bandwidth)

 Broyden mixing: mesh for mixing (old mesh)
   NGX = 29   NGY = 29   NGZ = 29
  (NGX  = 84   NGY  = 84   NGZ  = 84)
  gives a total of  24389 points

 charge density for first step will be calculated from the start-wavefunctions

 Maximum index for augmentation-charges          557 (set IRDMAX)

 initial charge from wavefunction
 First call to EWALD:  gamma=   0.369
 Maximum number of real-space cells 4x 4x 4
 Maximum number of reciprocal cells 5x 5x 5

--------------------------------------- Ionic step        1  -------------------------------------------

--------------------------------------- Iteration      1(   1)  ---------------------------------------

 eigenvalue-minimisations  :  9792
 total energy-change (2. order) :-0.3944941E+01  (-0.2368884E-06)
 number of electron      21.0000031 magnetization
 augmentation part       13.4031363 magnetization

 Broyden mixing:
  rms(total) = 0.98363E-04    rms(broyden)= 0.98341E-04
  rms(prec ) = 0.12298E-03
  weight for this iteration     100.00

 Free energy of the ion-electron system (eV)
  alpha Z        PSCENC =        24.67506247
  Ewald energy   TEWEN  =      -916.77881813
  -Hartree energ DENC   =      -771.79066446
  -exchange      EXHF   =         0.00000000
  -V(xc)+E(xc)   XCENC  =        73.29176146
  PAW double counting   =      1498.01360305    -1764.27286939
  entropy T*S    EENTRO =        -0.00173318
  eigenvalues    EBANDS =      -445.15533772
  atomic energy  EATOM  =      2298.07405512
  Solvation  Ediel_sol  =         0.00000000
  free energy    TOTEN  =        -3.94494078 eV

  energy without entropy =       -3.94320760  energy(sigma->0) =       -3.94407419

--------------------------------------- Iteration      1(   2)  ---------------------------------------

 eigenvalue-minimisations  :  9360
 total energy-change (2. order) : 0.8048914E-07  (-0.1814845E-07)
 number of electron      21.0000031 magnetization
 augmentation part       13.4031363 magnetization

 Free energy of the ion-electron system (eV)
  alpha Z        PSCENC =        24.67506247
  Ewald energy   TEWEN  =      -916.77881813
  -Hartree energ DENC   =      -771.78659431
  -exchange      EXHF   =         0.00000000
  -V(xc)+E(xc)   XCENC  =        73.29148579
  PAW double counting   =      1498.00862425    -1764.26456967
  entropy T*S    EENTRO =        -0.00173319
  eigenvalues    EBANDS =      -445.16245304
  atomic energy  EATOM  =      2298.07405512
  Solvation  Ediel_sol  =         0.00000000
  free energy    TOTEN  =        -3.94494070 eV

  energy without entropy =       -3.94320752  energy(sigma->0) =       -3.94407411

 average (electrostatic) potential at core
  the test charge radii are     0.9254
  (the norm of the test charge is              1.0000)
       1 -50.3714       2 -50.3712       3 -50.3712

 E-fermi :   0.3232     XC(G=0):  -6.5018     alpha+bet : -4.7059

 val. band max:        0.3071723104   @ k =   0.3333   0.1667   0.0833
 cond. band min:       0.3394127254   @ k =  -0.2500   0.4167   0.2500
 fundamental gap:      0.0322404150
 Fermi energy:         0.3232314760

 k-point     1 :       0.0000    0.0000    0.0000
  band No.  band energies     occupation
      1     -24.5833      2.00000
      2     -24.5832      2.00000
      3     -24.5598      2.00000
      4     -24.5598      2.00000
      5     -24.5597      2.00000
      6     -24.5597      2.00000
      7     -24.5569      2.00000
      8     -24.5561      2.00000
      9     -24.5561      2.00000
     10      -2.9507      2.00000
     11      -1.1299      2.00000
     12      -1.1299      2.00000
     13       4.0859      0.00000
     14       4.0870      0.00000
     15      10.5023      0.00000
     16      10.5023      0.00000
     17      10.6362      0.00000
     18      10.6362      0.00000
     19      10.8870      0.00000
     20      10.8870      0.00000
     21      10.9847      0.00000
     22      11.7434      0.00000
     23      11.8256      0.00000
     24      11.8256      0.00000
     25      12.2167      0.00000
     26      12.3577      0.00000
     27      12.8595      0.00000
     28      13.1144      0.00000
     29      13.1144      0.00000
     30      13.7374      0.00000
     31      13.9186      0.00000
     32      13.9186      0.00000
     33      14.6278      0.00000
     34      14.6278      0.00000
     35      14.7979      0.00000
     36      15.4551      0.00000
     37      15.5222      0.00000
     38      15.5222      0.00000
     39      16.9940      0.00000
     40      18.4865      0.00000
     41      18.4865      0.00000
     42      20.2110      0.00000
     43      20.4401      0.00000
     44      20.4401      0.00000
     45      21.0942      0.00000
     46      21.9866      0.00000
     47      21.9866      0.00000
     48      22.6934      0.00000

[...]

 k-point   189 :       0.5000    0.5000    0.5000
  band No.  band energies     occupation
      1     -24.5920      2.00000
      2     -24.5658      2.00000
      3     -24.5657      2.00000
      4     -24.5611      2.00000
      5     -24.5611      2.00000
      6     -24.5574      2.00000
      7     -24.5574      2.00000
      8     -24.5572      2.00000
      9     -24.5572      2.00000
     10      -2.4894      2.00000
     11      -2.4894      2.00000
     12       0.8851      0.00000
     13       1.2885      0.00000
     14       7.7786      0.00000
     15       7.7883      0.00000
     16      10.3402      0.00000
     17      10.3402      0.00000
     18      10.6643      0.00000
     19      10.6643      0.00000
     20      11.0942      0.00000
     21      11.0942      0.00000
     22      11.4621      0.00000
     23      11.9309      0.00000
     24      12.2729      0.00000
     25      12.2729      0.00000
     26      12.2904      0.00000
     27      12.6026      0.00000
     28      12.6026      0.00000
     29      13.0563      0.00000
     30      13.0563      0.00000
     31      14.0000      0.00000
     32      14.3874      0.00000
     33      14.7159      0.00000
     34      15.7422      0.00000
     35      15.7422      0.00000
     36      16.3246      0.00000
     37      16.3246      0.00000
     38      17.3330      0.00000
     39      17.3330      0.00000
     40      17.4719      0.00000
     41      17.5092      0.00000
     42      18.8773      0.00000
     43      19.2265      0.00000
     44      19.2444      0.00000
     45      19.2444      0.00000
     46      21.7712      0.00000
     47      23.0704      0.00000
     48      23.0704      0.00000

 soft charge-density along one line, spin component           1
         0         1         2         3         4         5         6         7         8         9
 total charge-density along one line

------------------------ aborting loop because EDIFF is reached ----------------------------------------

  FORCE on cell =-STRESS in cart. coord.  units (eV):
  Direction    XX          YY          ZZ          XY          YZ          ZX
  Alpha Z    24.67506    24.67506    24.67506
  Ewald    -305.72855  -305.74017  -305.31035     0.01063     0.05245     0.08842
  Hartree   257.15400   257.14484   257.48356     0.00838     0.04133     0.06968
  E(xc)    -112.70719  -112.70733  -112.70235     0.00012     0.00061     0.00102
  Local     -67.71323   -67.69222   -68.46926    -0.01922    -0.09482    -0.15985
  n-local   -67.03499   -67.00572   -67.01401     0.00347    -0.00282     0.00448
  augment   125.84296   125.84168   125.88913     0.00117     0.00579     0.00976
  Kinetic   147.37168   143.45354   145.53023    -0.43688     0.30804    -0.65217
  Fock        0.00000     0.00000     0.00000     0.00000     0.00000     0.00000
  Total      -0.01065    -0.00904    -0.06887    -0.00148    -0.00730    -0.01231
  in kB      -0.15350    -0.13020    -0.99225    -0.02133    -0.10519    -0.17734

 VOLUME and BASIS-vectors are now :
  energy-cutoff  :      337.43
  volume of cell :      111.21
      direct lattice vectors                 reciprocal lattice vectors
     3.668155505  0.000000000  8.674434154     0.272616578 -0.148939962  0.000000000
     1.758687886  3.219065351  8.674434154     0.000000000  0.310649176  0.000000000
     0.000000000  0.000000000  9.418130000    -0.251089606 -0.148939962  0.106178190

  length of vectors
     9.418130000  9.418130000  9.418130000     0.310649176  0.310649176  0.310649176

 FORCES acting on ions
    electron-ion (+dipol)            ewald-force                    non-local-force                 convergence-correction
   -.279E-13 -.337E-13 -.125E-12   -.355E-14 -.355E-14 -.426E-13   -.124E-23 0.483E-24 0.681E-23   0.138E-14 -.382E-14 0.150E-13
   -.834E-02 -.495E-02 -.411E-01   0.734E-02 0.435E-02 0.362E-01   0.105E-02 0.625E-03 0.520E-02   -.918E-05 -.545E-05 -.453E-04
   0.834E-02 0.495E-02 0.411E-01   -.734E-02 -.435E-02 -.362E-01   -.105E-02 -.625E-03 -.520E-02   0.918E-05 0.545E-05 0.453E-04
   0.850E-12 -.369E-13 0.207E-10   0.942E-14 0.235E-15 0.268E-14   0.000E+00 0.000E+00 0.000E+00   0.180E-13 -.119E-13 0.469E-14

 POSITION                                       TOTAL-FORCE (eV/Angst)
      0.00000      0.00000      0.00000        -0.000000     -0.000000     -0.000000
      1.20595      0.71534      5.94816         0.000041      0.000024      0.000202
      4.22089      2.50372     20.81884        -0.000041     -0.000024     -0.000202
    total drift:                                0.000000     -0.000000      0.000000

  FREE ENERGIE OF THE ION-ELECTRON SYSTEM (eV)
  free  energy   TOTEN  =        -3.94494070 eV

  energy  without entropy=       -3.94320752  energy(sigma->0) =       -3.94407411

 writing wavefunctions