 vasp.6.4.3 19Mar24 (build Jun 26 2024 13:02:28) complex

 executed on             LinuxIFC date 2025.08.08  18:59:10

 INCAR:
   ENCUT = 648.7442
   IBRION = -1
   ISMEAR = 0
   ISYM = 2
   LCHARG = True
   LWAVE = True
   SIGMA = 0.05
   SYSTEM = Li

 POTCAR:  PAW_PBE Li_sv 10Sep2004
|           W    W    AA    RRRRR   N    N  II  N    N   GGGG   !!!           |
|           W    W   A  A   R    R  NN   N  II  NN   N  G    G  !!!           |
|           W    W  A    A  R    R  N N  N  II  N N  N  G       !!!           |
|           W WW W  AAAAAA  RRRRR   N  N N  II  N  N N  G  GGG   !            |
|           WW  WW  A    A  R   R   N   NN  II  N   NN  G    G                |
|           W    W  A    A  R    R  N    N  II  N    N   GGGG   !!!           |
|     For optimal performance we recommend to set                             |
|       NCORE = 2 up to number-of-cores-per-socket                            |
|     This setting can greatly improve the performance of VASP for DFT.       |
|     The default, NCORE=1 might be grossly inefficient on modern             |
|     multi-core architectures or massively parallel machines. Do your        |
|     Unfortunately you need to use the default for GW and RPA                |
|     calculations (for HF NCORE is supported but not extensively tested      |
|     yet).                                                                   |

 POTCAR:  PAW_PBE Li_sv 10Sep2004
   VRHFIN =Li: 1s2s2p

   TITEL  = PAW_PBE Li_sv 10Sep2004
   POMASS =    7.010; ZVAL   =    3.000    mass and valenz
   ENMAX  =  499.034; ENMIN  =  374.276 eV

PAW_PBE Li_sv 10Sep2004                 :

 POSCAR: Li3
  positions in direct lattice

 exchange-correlation table for PE
   RHO(1)=    0.500       N(1)  =     2000
   RHO(2)=  100.500       N(2)  =     4000

 ion  position               nearest neighbor table
   1  0.000  0.000  0.000-
   2  0.222  0.222  0.222-
   3  0.778  0.778  0.778-

  LATTYP: Found a trigonal (rhomboedric) cell.
 ALAT       =     7.6400400000
 COS(alpha) =     0.9189977028

  Lattice vectors:

 A1 = (   3.0121842099,   0.0000000000,   7.0211792092)
 A2 = (   1.4425188552,   2.6443133451,   7.0211792092)
 A3 = (   0.0000000000,   0.0000000000,   7.6400400000)

Analysis of symmetry for initial positions (statically):
 Subroutine PRICEL returns:
 Original cell was already a primitive cell.

 Routine SETGRP: Setting up the symmetry group for a
 trigonal (rhombohedral) supercell.

 Subroutine GETGRP returns: Found 12 space group operations
 (whereof 12 operations were pure point group operations)
 out of a pool of 12 trial point group operations.

The static configuration has the point symmetry D_3d.

Analysis of symmetry for dynamics (positions and initial velocities):
 Subroutine PRICEL returns:
 Original cell was already a primitive cell.

 Routine SETGRP: Setting up the symmetry group for a
 trigonal (rhombohedral) supercell.

 Subroutine GETGRP returns: Found 12 space group operations
 (whereof 12 operations were pure point group operations)
 out of a pool of 12 trial point group operations.

The dynamic configuration has the point symmetry D_3d.

 Subroutine INISYM returns: Found 12 space group operations
 (whereof 12 operations are pure point group operations),
 and found     1 'primitive' translations

                                     Primitive cell

  volume of cell :      60.8541

  direct lattice vectors                    reciprocal lattice vectors
     3.012184210  0.000000000  7.021179209     0.331985008 -0.181103588  0.000000000
     1.442518855  2.644313345  7.021179209     0.000000000  0.378170008  0.000000000
     0.000000000  0.000000000  7.640040000    -0.305093460 -0.181103588  0.130889367

  length of vectors
     7.640040000  7.640040000  7.640040000     0.378170008  0.378170008  0.378170008

  position of ions in fractional coordinates (direct lattice)
     0.000000000  0.000000000  0.000000000
     0.222220000  0.222220000  0.222220000
     0.777780000  0.777780000  0.777780000

  ion indices of the primitive-cell ions
   primitive index   ion index
                 1           1
                 2           2
                 3           3

 KPOINTS: Automatic kpoint scheme

Automatic generation of k-mesh.
 Grid dimensions read from file:
 generate k-points for:    8    8    8

 Generating k-lattice:

  Cartesian coordinates                     Fractional coordinates (reciprocal lattice)
     0.041498126 -0.022637948  0.000000000     0.125000000  0.000000000  0.000000000
     0.000000000  0.047271251  0.000000000     0.000000000  0.125000000  0.000000000
    -0.038136683 -0.022637948  0.016361171    -0.000000000 -0.000000000  0.125000000

  Length of vectors
     0.047271251  0.047271251  0.047271251

  Shift w.r.t. Gamma in fractional coordinates (k-lattice)
     0.000000000  0.000000000  0.000000000

 Subroutine IBZKPT returns following result:

 Found     65 irreducible k-points:

 Following reciprocal coordinates:
            Coordinates               Weight
  0.000000  0.000000  0.000000      1.000000
  0.125000  0.000000  0.000000      6.000000
  0.250000  0.000000  0.000000      6.000000
  0.375000 -0.000000  0.000000      6.000000
  0.500000  0.000000  0.000000      3.000000
  0.125000  0.125000  0.000000      6.000000
  0.250000  0.125000  0.000000     12.000000
  0.375000  0.125000  0.000000     12.000000
  0.500000  0.125000  0.000000     12.000000
 -0.375000  0.125000  0.000000     12.000000
 -0.250000  0.125000  0.000000     12.000000
 -0.125000  0.125000  0.000000      6.000000
  0.250000  0.250000  0.000000      6.000000
  0.375000  0.250000  0.000000     12.000000
  0.500000  0.250000  0.000000     12.000000
 -0.375000  0.250000  0.000000     12.000000
 -0.250000  0.250000  0.000000      6.000000
  0.375000  0.375000  0.000000      6.000000
  0.500000  0.375000  0.000000     12.000000
 -0.375000  0.375000  0.000000      6.000000
  0.500000  0.500000  0.000000      3.000000
  0.125000  0.125000  0.125000      2.000000
  0.250000  0.125000  0.125000      6.000000
  0.375000  0.125000  0.125000      6.000000
  0.500000  0.125000  0.125000      6.000000
 -0.375000  0.125000  0.125000      6.000000
 -0.250000  0.125000  0.125000      6.000000
 -0.125000  0.125000  0.125000      6.000000
  0.250000  0.250000  0.125000      6.000000
  0.375000  0.250000  0.125000     12.000000
  0.500000  0.250000  0.125000     12.000000
 -0.375000  0.250000  0.125000     12.000000
 -0.250000  0.250000  0.125000     12.000000
 -0.125000  0.250000  0.125000     12.000000
  0.375000  0.375000  0.125000      6.000000
  0.500000  0.375000  0.125000     12.000000
 -0.375000  0.375000  0.125000     12.000000
 -0.250000  0.375000  0.125000     12.000000
 -0.125000  0.375000  0.125000     12.000000
  0.500000  0.500000  0.125000      6.000000
 -0.375000  0.500000  0.125000     12.000000
 -0.250000  0.500000  0.125000     12.000000
 -0.125000  0.500000  0.125000      6.000000
 -0.375000 -0.375000  0.125000      6.000000
 -0.250000 -0.375000  0.125000     12.000000
 -0.250000 -0.250000  0.125000      6.000000
  0.250000  0.250000  0.250000      2.000000
  0.375000  0.250000  0.250000      6.000000
  0.500000  0.250000  0.250000      6.000000
 -0.375000  0.250000  0.250000      6.000000
 -0.250000  0.250000  0.250000      6.000000
  0.375000  0.375000  0.250000      6.000000
  0.500000  0.375000  0.250000     12.000000
 -0.375000  0.375000  0.250000     12.000000
 -0.250000  0.375000  0.250000     12.000000
  0.500000  0.500000  0.250000      6.000000
 -0.375000  0.500000  0.250000     12.000000
 -0.250000  0.500000  0.250000      6.000000
 -0.375000 -0.375000  0.250000      6.000000
  0.375000  0.375000  0.375000      2.000000
  0.500000  0.375000  0.375000      6.000000
 -0.375000  0.375000  0.375000      6.000000
  0.500000  0.500000  0.375000      6.000000
 -0.375000  0.500000  0.375000      6.000000
  0.500000  0.500000  0.500000      1.000000

 Following cartesian coordinates:
            Coordinates               Weight
  0.000000  0.000000  0.000000      1.000000
  0.041498 -0.022638  0.000000      6.000000
  0.082996 -0.045276  0.000000      6.000000
  0.124494 -0.067914  0.000000      6.000000
  0.165993 -0.090552  0.000000      3.000000
  0.041498  0.024633  0.000000      6.000000
  0.082996  0.001995  0.000000     12.000000
  0.124494 -0.020643  0.000000     12.000000
  0.165993 -0.043281  0.000000     12.000000
 -0.124494  0.115185  0.000000     12.000000
 -0.082996  0.092547  0.000000     12.000000
 -0.041498  0.069909  0.000000      6.000000
  0.082996  0.049267  0.000000      6.000000
  0.124494  0.026629  0.000000     12.000000
  0.165993  0.003991  0.000000     12.000000
 -0.124494  0.162456  0.000000     12.000000
 -0.082996  0.139818  0.000000      6.000000
  0.124494  0.073900  0.000000      6.000000
  0.165993  0.051262  0.000000     12.000000
 -0.124494  0.209728  0.000000      6.000000
  0.165993  0.098533  0.000000      3.000000
  0.003361  0.001995  0.016361      2.000000
  0.044860 -0.020643  0.016361      6.000000
  0.086358 -0.043281  0.016361      6.000000
  0.127856 -0.065918  0.016361      6.000000
 -0.162631  0.092547  0.016361      6.000000
 -0.121133  0.069909  0.016361      6.000000
 -0.079635  0.047271  0.016361      6.000000
  0.044860  0.026629  0.016361      6.000000
  0.086358  0.003991  0.016361     12.000000
  0.127856 -0.018647  0.016361     12.000000
 -0.162631  0.139818  0.016361     12.000000
 -0.121133  0.117180  0.016361     12.000000
 -0.079635  0.094543  0.016361     12.000000
  0.086358  0.051262  0.016361      6.000000
  0.127856  0.028624  0.016361     12.000000
 -0.162631  0.187090  0.016361     12.000000
 -0.121133  0.164452  0.016361     12.000000
 -0.079635  0.141814  0.016361     12.000000
  0.127856  0.075895  0.016361      6.000000
 -0.162631  0.234361  0.016361     12.000000
 -0.121133  0.211723  0.016361     12.000000
 -0.079635  0.189085  0.016361      6.000000
 -0.162631 -0.096538  0.016361      6.000000
 -0.121133 -0.119176  0.016361     12.000000
 -0.121133 -0.071905  0.016361      6.000000
  0.006723  0.003991  0.032722      2.000000
  0.048221 -0.018647  0.032722      6.000000
  0.089719 -0.041285  0.032722      6.000000
 -0.200768  0.117180  0.032722      6.000000
 -0.159270  0.094543  0.032722      6.000000
  0.048221  0.028624  0.032722      6.000000
  0.089719  0.005986  0.032722     12.000000
 -0.200768  0.164452  0.032722     12.000000
 -0.159270  0.141814  0.032722     12.000000
  0.089719  0.053257  0.032722      6.000000
 -0.200768  0.211723  0.032722     12.000000
 -0.159270  0.189085  0.032722      6.000000
 -0.200768 -0.119176  0.032722      6.000000
  0.010084  0.005986  0.049084      2.000000
  0.051582 -0.016652  0.049084      6.000000
 -0.238904  0.141814  0.049084      6.000000
  0.051582  0.030619  0.049084      6.000000
 -0.238904  0.189085  0.049084      6.000000
  0.013446  0.007981  0.065445      1.000000

 Subroutine IBZKPT_HF returns following result:

 Found    512 k-points in 1st BZ
 the following    512 k-points will be used (e.g. in the exchange kernel)
 Following reciprocal coordinates:   # in IRBZ
[...]
   0.37500000  0.37500000  0.00000000       0.012
   0.50000000  0.37500000  0.00000000       0.023
  -0.37500000  0.37500000  0.00000000       0.012
   0.50000000  0.50000000  0.00000000       0.006
   0.12500000  0.12500000  0.12500000       0.004
   0.25000000  0.12500000  0.12500000       0.012
   0.37500000  0.12500000  0.12500000       0.012
   0.50000000  0.12500000  0.12500000       0.012
  -0.37500000  0.12500000  0.12500000       0.012
  -0.25000000  0.12500000  0.12500000       0.012
  -0.12500000  0.12500000  0.12500000       0.012
   0.25000000  0.25000000  0.12500000       0.012
   0.37500000  0.25000000  0.12500000       0.023
   0.50000000  0.25000000  0.12500000       0.023
  -0.37500000  0.25000000  0.12500000       0.023
  -0.25000000  0.25000000  0.12500000       0.023
  -0.12500000  0.25000000  0.12500000       0.023
   0.37500000  0.37500000  0.12500000       0.012
   0.50000000  0.37500000  0.12500000       0.023
  -0.37500000  0.37500000  0.12500000       0.023
  -0.25000000  0.37500000  0.12500000       0.023
  -0.12500000  0.37500000  0.12500000       0.023
   0.50000000  0.50000000  0.12500000       0.012
  -0.37500000  0.50000000  0.12500000       0.023
  -0.25000000  0.50000000  0.12500000       0.023
  -0.12500000  0.50000000  0.12500000       0.012
  -0.37500000 -0.37500000  0.12500000       0.012
  -0.25000000 -0.37500000  0.12500000       0.023
  -0.25000000 -0.25000000  0.12500000       0.012
   0.25000000  0.25000000  0.25000000       0.004
   0.37500000  0.25000000  0.25000000       0.012
   0.50000000  0.25000000  0.25000000       0.012
  -0.37500000  0.25000000  0.25000000       0.012
  -0.25000000  0.25000000  0.25000000       0.012
   0.37500000  0.37500000  0.25000000       0.012
   0.50000000  0.37500000  0.25000000       0.023
  -0.37500000  0.37500000  0.25000000       0.023
  -0.25000000  0.37500000  0.25000000       0.023
   0.50000000  0.50000000  0.25000000       0.012
  -0.37500000  0.50000000  0.25000000       0.023
  -0.25000000  0.50000000  0.25000000       0.012
  -0.37500000 -0.37500000  0.25000000       0.012
   0.37500000  0.37500000  0.37500000       0.004
   0.50000000  0.37500000  0.37500000       0.012
  -0.37500000  0.37500000  0.37500000       0.012
   0.50000000  0.50000000  0.37500000       0.012
  -0.37500000  0.50000000  0.37500000       0.012
   0.50000000  0.50000000  0.50000000       0.002

 position of ions in fractional coordinates (direct lattice)
   0.00000000  0.00000000  0.00000000
   0.22222000  0.22222000  0.22222000
   0.77778000  0.77778000  0.77778000

 position of ions in cartesian coordinates  (Angst):
   0.00000000  0.00000000  0.00000000
   0.98992412  0.58761931  4.81826258
   3.46477895  2.05669403 16.86413584

 k-point     1 :   0.0000 0.0000 0.0000  plane waves:    2281
 k-point     2 :   0.1250 0.0000 0.0000  plane waves:    2300
 k-point     3 :   0.2500 0.0000 0.0000  plane waves:    2297
 k-point     4 :   0.3750-0.0000 0.0000  plane waves:    2289
 k-point     5 :   0.5000 0.0000 0.0000  plane waves:    2290
 k-point     6 :   0.1250 0.1250 0.0000  plane waves:    2300
 k-point     7 :   0.2500 0.1250 0.0000  plane waves:    2292
 k-point     8 :   0.3750 0.1250 0.0000  plane waves:    2282
 k-point     9 :   0.5000 0.1250 0.0000  plane waves:    2274
 k-point    10 :  -0.3750 0.1250 0.0000  plane waves:    2278
 k-point    11 :  -0.2500 0.1250 0.0000  plane waves:    2286
 k-point    12 :  -0.1250 0.1250 0.0000  plane waves:    2285
 k-point    13 :   0.2500 0.2500 0.0000  plane waves:    2294
 k-point    14 :   0.3750 0.2500 0.0000  plane waves:    2289
 k-point    15 :   0.5000 0.2500 0.0000  plane waves:    2279
 k-point    16 :  -0.3750 0.2500 0.0000  plane waves:    2268
 k-point    17 :  -0.2500 0.2500 0.0000  plane waves:    2274
 k-point    18 :   0.3750 0.3750 0.0000  plane waves:    2285
 k-point    19 :   0.5000 0.3750 0.0000  plane waves:    2275
 k-point    20 :  -0.3750 0.3750 0.0000  plane waves:    2264
 k-point    21 :   0.5000 0.5000 0.0000  plane waves:    2286
 k-point    22 :   0.1250 0.1250 0.1250  plane waves:    2284
 k-point    23 :   0.2500 0.1250 0.1250  plane waves:    2298
 k-point    24 :   0.3750 0.1250 0.1250  plane waves:    2298
 k-point    25 :   0.5000 0.1250 0.1250  plane waves:    2285
 k-point    26 :  -0.3750 0.1250 0.1250  plane waves:    2282
 k-point    27 :  -0.2500 0.1250 0.1250  plane waves:    2276
 k-point    28 :  -0.1250 0.1250 0.1250  plane waves:    2282
 k-point    29 :   0.2500 0.2500 0.1250  plane waves:    2291
 k-point    30 :   0.3750 0.2500 0.1250  plane waves:    2298
 k-point    31 :   0.5000 0.2500 0.1250  plane waves:    2281
 k-point    32 :  -0.3750 0.2500 0.1250  plane waves:    2277
 k-point    33 :  -0.2500 0.2500 0.1250  plane waves:    2274
 k-point    34 :  -0.1250 0.2500 0.1250  plane waves:    2290
 k-point    35 :   0.3750 0.3750 0.1250  plane waves:    2290
 k-point    36 :   0.5000 0.3750 0.1250  plane waves:    2287
 k-point    37 :  -0.3750 0.3750 0.1250  plane waves:    2280
 k-point    38 :  -0.2500 0.3750 0.1250  plane waves:    2267
 k-point    39 :  -0.1250 0.3750 0.1250  plane waves:    2277
 k-point    40 :   0.5000 0.5000 0.1250  plane waves:    2275
 k-point    41 :  -0.3750 0.5000 0.1250  plane waves:    2271
 k-point    42 :  -0.2500 0.5000 0.1250  plane waves:    2263
 k-point    43 :  -0.1250 0.5000 0.1250  plane waves:    2268
 k-point    44 :  -0.3750-0.3750 0.1250  plane waves:    2279
 k-point    45 :  -0.2500-0.3750 0.1250  plane waves:    2281
 k-point    46 :  -0.2500-0.2500 0.1250  plane waves:    2286
 k-point    47 :   0.2500 0.2500 0.2500  plane waves:    2281
 k-point    48 :   0.3750 0.2500 0.2500  plane waves:    2291
 k-point    49 :   0.5000 0.2500 0.2500  plane waves:    2292
 k-point    50 :  -0.3750 0.2500 0.2500  plane waves:    2280
 k-point    51 :  -0.2500 0.2500 0.2500  plane waves:    2277
 k-point    52 :   0.3750 0.3750 0.2500  plane waves:    2299
 k-point    53 :   0.5000 0.3750 0.2500  plane waves:    2298
 k-point    54 :  -0.3750 0.3750 0.2500  plane waves:    2283
 k-point    55 :  -0.2500 0.3750 0.2500  plane waves:    2266
 k-point    56 :   0.5000 0.5000 0.2500  plane waves:    2300
 k-point    57 :  -0.3750 0.5000 0.2500  plane waves:    2285
 k-point    58 :  -0.2500 0.5000 0.2500  plane waves:    2274
 k-point    59 :  -0.3750-0.3750 0.2500  plane waves:    2284
 k-point    60 :   0.3750 0.3750 0.3750  plane waves:    2284
 k-point    61 :   0.5000 0.3750 0.3750  plane waves:    2299
 k-point    62 :  -0.3750 0.3750 0.3750  plane waves:    2297
 k-point    63 :   0.5000 0.5000 0.3750  plane waves:    2297
 k-point    64 :  -0.3750 0.5000 0.3750  plane waves:    2294
 k-point    65 :   0.5000 0.5000 0.5000  plane waves:    2286

 maximum and minimum number of plane-waves per node :      2300     2263

 maximum number of plane-waves:      2300
 maximum index in each direction:
   IXMAX=   16   IYMAX=   16   IZMAX=   15
   IXMIN=  -16   IYMIN=  -16   IZMIN=  -16

 serial   3D FFT for wavefunctions
 parallel 3D FFT for charge:
    minimum data exchange during FFTs selected (reduces bandwidth)

 Broyden mixing: mesh for mixing (old mesh)
   NGX = 31   NGY = 31   NGZ = 31
  (NGX  = 96   NGY  = 96   NGZ  = 96)
  gives a total of  29791 points

 charge density for first step will be calculated from the start-wavefunctions

 Maximum index for augmentation-charges          629 (set IRDMAX)

 initial charge from wavefunction
 First call to EWALD:  gamma=   0.451
 Maximum number of real-space cells 4x 4x 4
 Maximum number of reciprocal cells 5x 5x 5

--------------------------------------- Ionic step        1  -------------------------------------------

--------------------------------------- Iteration      1(   1)  ---------------------------------------

 eigenvalue-minimisations  :  3984
 total energy-change (2. order) :-0.5712941E+01  (-0.1100785E-05)
 number of electron       9.0000029 magnetization
 augmentation part        2.7582976 magnetization

 Broyden mixing:
  rms(total) = 0.26560E-03    rms(broyden)= 0.26543E-03
  rms(prec ) = 0.10816E-02
  weight for this iteration     100.00

 Free energy of the ion-electron system (eV)
  alpha Z        PSCENC =         3.40451590
  Ewald energy   TEWEN  =      -205.86489729
  -Hartree energ DENC   =      -123.75717003
  -exchange      EXHF   =         0.00000000
  -V(xc)+E(xc)   XCENC  =        36.19471439
  PAW double counting   =       243.29755680     -289.71651577
  entropy T*S    EENTRO =        -0.00252138
  eigenvalues    EBANDS =      -277.60422247
  atomic energy  EATOM  =       608.33559851
  Solvation  Ediel_sol  =         0.00000000
  free energy    TOTEN  =        -5.71294132 eV

  energy without entropy =       -5.71041995  energy(sigma->0) =       -5.71168064

--------------------------------------- Iteration      1(   2)  ---------------------------------------

 eigenvalue-minimisations  :  3648
 total energy-change (2. order) : 0.9991545E-06  (-0.8615280E-06)
 number of electron       9.0000029 magnetization
 augmentation part        2.7582976 magnetization

 Free energy of the ion-electron system (eV)
  alpha Z        PSCENC =         3.40451590
  Ewald energy   TEWEN  =      -205.86489729
  -Hartree energ DENC   =      -123.75773361
  -exchange      EXHF   =         0.00000000
  -V(xc)+E(xc)   XCENC  =        36.19477310
  PAW double counting   =       243.30350323     -289.72229448
  entropy T*S    EENTRO =        -0.00252115
  eigenvalues    EBANDS =      -277.60388454
  atomic energy  EATOM  =       608.33559851
  Solvation  Ediel_sol  =         0.00000000
  free energy    TOTEN  =        -5.71294032 eV

  energy without entropy =       -5.71041917  energy(sigma->0) =       -5.71167975

 average (electrostatic) potential at core
  the test charge radii are     0.7079
  (the norm of the test charge is              1.0000)
       1 -64.9939       2 -64.9901       3 -64.9901

 E-fermi :   0.5536     XC(G=0):  -7.0428     alpha+bet : -7.3740

 val. band max:        0.5463625744   @ k =  -0.2500   0.3750   0.2500
 cond. band min:       0.5540181148   @ k =  -0.3750   0.1250   0.1250
 fundamental gap:      0.0076555404
 Fermi energy:         0.5536060107

 k-point     1 :       0.0000    0.0000    0.0000
  band No.  band energies     occupation
      1     -45.9041      2.00000
      2     -45.8908      2.00000
      3     -45.8885      2.00000
      4      -2.9406      2.00000
      5      -0.9438      2.00000
      6      -0.9421      2.00000
      7       6.4742      0.00000
      8       6.4753      0.00000
      9      13.2818      0.00000
     10      13.2818      0.00000
     11      13.4194      0.00000
     12      13.4194      0.00000
     13      14.5168      0.00000
     14      14.5168      0.00000
     15      15.2448      0.00000
     16      17.4152      0.00000
     17      17.4152      0.00000
     18      17.6722      0.00000
     19      17.9869      0.00000
     20      18.6795      0.00000
     21      18.6795      0.00000
     22      19.0427      0.00000
     23      19.7203      0.00000
     24      20.1264      0.00000
     25      20.1264      0.00000
     26      21.3783      0.00000
     27      21.9214      0.00000
     28      22.9423      0.00000
     29      22.9423      0.00000
     30      22.9672      0.00000
     31      23.2800      0.00000
     32      23.2800      0.00000
     33      25.4089      0.00000
     34      29.0607      0.00000
     35      29.2282      0.00000
     36      29.2282      0.00000
     37      29.9439      0.00000
     38      29.9439      0.00000
     39      30.3893      0.00000
     40      34.1209      0.00000
     41      34.1209      0.00000
     42      34.4410      0.00000
     43      34.4410      0.00000
     44      34.6930      0.00000
     45      36.3723      0.00000
     46      37.2284      0.00000
     47      37.7287      0.00000
     48      39.0134      0.00000

[...]

 k-point    65 :       0.5000    0.5000    0.5000
  band No.  band energies     occupation
      1     -45.9008      2.00000
      2     -45.8979      2.00000
      3     -45.8848      2.00000
      4      -2.4358      2.00000
      5      -2.4343      2.00000
      6       0.6817      0.00029
      7       3.6473      0.00000
      8      11.3771      0.00000
      9      11.3896      0.00000
     10      12.9598      0.00000
     11      12.9598      0.00000
     12      14.0158      0.00000
     13      14.0158      0.00000
     14      14.2925      0.00000
     15      14.2925      0.00000
     16      17.6003      0.00000
     17      17.6003      0.00000
     18      17.8672      0.00000
     19      18.0278      0.00000
     20      18.6409      0.00000
     21      18.6409      0.00000
     22      18.6864      0.00000
     23      19.1765      0.00000
     24      19.1765      0.00000
     25      19.7211      0.00000
     26      20.9310      0.00000
     27      22.4326      0.00000
     28      24.2091      0.00000
     29      24.2091      0.00000
     30      24.2241      0.00000
     31      24.2241      0.00000
     32      25.7926      0.00000
     33      27.5866      0.00000
     34      27.5866      0.00000
     35      27.7048      0.00000
     36      28.1731      0.00000
     37      28.1731      0.00000
     38      28.2984      0.00000
     39      28.7187      0.00000
     40      31.0720      0.00000
     41      34.9249      0.00000
     42      35.9716      0.00000
     43      36.1175      0.00000
     44      36.1175      0.00000
     45      36.7933      0.00000
     46      36.7933      0.00000
     47      39.5515      0.00000
     48      42.0690      0.00000

 soft charge-density along one line, spin component           1
         0         1         2         3         4         5         6         7         8         9
 total charge-density along one line

------------------------ aborting loop because EDIFF is reached ----------------------------------------

  FORCE on cell =-STRESS in cart. coord.  units (eV):
  Direction    XX          YY          ZZ          XY          YZ          ZX
  Alpha Z     3.40452     3.40452     3.40452
  Ewald     -68.98368   -69.01559   -67.86568     0.02925     0.14236     0.23982
  Hartree    41.14120    41.13135    41.48623     0.00903     0.04393     0.07401
  E(xc)     -39.81405   -39.81403   -39.81479    -0.00002    -0.00009    -0.00016
  Local     -57.89174   -57.85681   -59.11543    -0.03201    -0.15581    -0.26249
  n-local   -56.94382   -57.86524   -57.41761    -0.13521     0.07340    -0.13331
  augment    51.45641    51.45666    51.44764    -0.00023    -0.00112    -0.00188
  Kinetic   130.87615   125.10358   127.85024    -0.98126     0.35950    -0.54015
  Fock        0.00000     0.00000     0.00000     0.00000     0.00000     0.00000
  Total      -0.05528    -0.05323    -0.12694    -0.00187    -0.00913    -0.01537
  in kB      -1.45536    -1.40151    -3.34218    -0.04936    -0.24025    -0.40474

 VOLUME and BASIS-vectors are now :
  energy-cutoff  :      648.74
  volume of cell :       60.85
      direct lattice vectors                 reciprocal lattice vectors
     3.012184210  0.000000000  7.021179209     0.331985008 -0.181103588  0.000000000
     1.442518855  2.644313345  7.021179209     0.000000000  0.378170008  0.000000000
     0.000000000  0.000000000  7.640040000    -0.305093460 -0.181103588  0.130889367

  length of vectors
     7.640040000  7.640040000  7.640040000     0.378170008  0.378170008  0.378170008

 FORCES acting on ions
    electron-ion (+dipol)            ewald-force                    non-local-force                 convergence-correction
   -.220E-14 -.740E-15 -.731E-14   0.000E+00 -.222E-14 -.711E-14   -.805E-24 0.135E-23 -.501E-23   0.673E-15 -.118E-14 0.104E-14
   -.281E-02 -.167E-02 -.137E-01   0.224E-02 0.133E-02 0.109E-01   0.939E-03 0.557E-03 0.457E-02   -.316E-03 -.188E-03 -.154E-02
   0.281E-02 0.167E-02 0.137E-01   -.224E-02 -.133E-02 -.109E-01   -.939E-03 -.557E-03 -.457E-02   0.316E-03 0.188E-03 0.154E-02
   0.618E-12 -.605E-13 0.890E-11   0.139E-14 0.230E-16 0.645E-15   0.759E-18 0.108E-18 0.867E-18   0.116E-15 0.236E-14 -.921E-15

 POSITION                                       TOTAL-FORCE (eV/Angst)
      0.00000      0.00000      0.00000         0.000000     -0.000000      0.000000
      0.98992      0.58762      4.81826         0.000046      0.000027      0.000222
      3.46478      2.05669     16.86414        -0.000046     -0.000027     -0.000222
    total drift:                                0.000000     -0.000000      0.000000

  FREE ENERGIE OF THE ION-ELECTRON SYSTEM (eV)
  free  energy   TOTEN  =        -5.71294032 eV

  energy  without entropy=       -5.71041917  energy(sigma->0) =       -5.71167975

 writing wavefunctions