 vasp.6.4.3 19Mar24 (build Jun 26 2024 13:02:28) complex

 executed on             LinuxIFC date 2025.08.08  18:56:09

 INCAR:
   ENCUT = 403.3822
   IBRION = -1
   ISMEAR = 0
   ISYM = 2
   LCHARG = True
   LWAVE = True
   SIGMA = 0.05
   SYSTEM = Ge

 POTCAR:  PAW_PBE Ge_d 03Jul2007
|           W    W    AA    RRRRR   N    N  II  N    N   GGGG   !!!           |
|           W    W   A  A   R    R  NN   N  II  NN   N  G    G  !!!           |
|           W    W  A    A  R    R  N N  N  II  N N  N  G       !!!           |
|           W WW W  AAAAAA  RRRRR   N  N N  II  N  N N  G  GGG   !            |
|           WW  WW  A    A  R   R   N   NN  II  N   NN  G    G                |
|           W    W  A    A  R    R  N    N  II  N    N   GGGG   !!!           |
|     For optimal performance we recommend to set                             |
|       NCORE = 2 up to number-of-cores-per-socket                            |
|     This setting can greatly improve the performance of VASP for DFT.       |
|     The default, NCORE=1 might be grossly inefficient on modern             |
|     multi-core architectures or massively parallel machines. Do your        |
|     Unfortunately you need to use the default for GW and RPA                |
|     calculations (for HF NCORE is supported but not extensively tested      |
|     yet).                                                                   |

 POTCAR:  PAW_PBE Ge_d 03Jul2007
   VRHFIN =Ge: 3d4s4p

   TITEL  = PAW_PBE Ge_d 03Jul2007
   POMASS =   72.610; ZVAL   =   14.000    mass and valenz
   ENMAX  =  310.294; ENMIN  =  232.720 eV

PAW_PBE Ge_d 03Jul2007                  :

 POSCAR: Ge2
  positions in direct lattice

 exchange-correlation table for PE
   RHO(1)=    0.500       N(1)  =     2000
   RHO(2)=  100.500       N(2)  =     4000

 ion  position               nearest neighbor table
   1  0.000  0.000  0.000-   2 2.49   2 2.49   2 2.49   2 2.49
   2  0.250  0.250  0.250-   1 2.49   1 2.49   1 2.49   1 2.49

  LATTYP: Found a face centered cubic cell.
 ALAT       =     5.7617747537

  Lattice vectors:

 A1 = (   3.5283520398,   0.0000000000,   2.0370950000)
 A2 = (   1.1761173466,   3.3265622050,   2.0370950000)
 A3 = (   0.0000000000,   0.0000000000,   4.0741900000)

Analysis of symmetry for initial positions (statically):
 Subroutine PRICEL returns:
 Original cell was already a primitive cell.

 Routine SETGRP: Setting up the symmetry group for a
 face centered cubic supercell.

 Subroutine GETGRP returns: Found 48 space group operations
 (whereof 24 operations were pure point group operations)
 out of a pool of 48 trial point group operations.

The static configuration has the point symmetry T_d .
 The point group associated with its full space group is O_h .

Analysis of symmetry for dynamics (positions and initial velocities):
 Subroutine PRICEL returns:
 Original cell was already a primitive cell.

 Routine SETGRP: Setting up the symmetry group for a
 face centered cubic supercell.

 Subroutine GETGRP returns: Found 48 space group operations
 (whereof 24 operations were pure point group operations)
 out of a pool of 48 trial point group operations.

The dynamic configuration has the point symmetry T_d .
 The point group associated with its full space group is O_h .

 Subroutine INISYM returns: Found 48 space group operations
 (whereof 24 operations are pure point group operations),
 and found     1 'primitive' translations

                                     Primitive cell

  volume of cell :      47.8199

  direct lattice vectors                    reciprocal lattice vectors
     3.528352040  0.000000000  2.037095000     0.283418431 -0.100203547  0.000000000
     1.176117347  3.326562205  2.037095000     0.000000000  0.300610642  0.000000000
     0.000000000  0.000000000  4.074190000    -0.141709216 -0.100203547  0.245447561

  length of vectors
     4.074190000  4.074190000  4.074190000     0.300610642  0.300610642  0.300610642

  position of ions in fractional coordinates (direct lattice)
     0.000000000  0.000000000  0.000000000
     0.250000000  0.250000000  0.250000000

  ion indices of the primitive-cell ions
   primitive index   ion index
                 1           1
                 2           2

 KPOINTS: Automatic kpoint scheme

Automatic generation of k-mesh.
 Grid dimensions read from file:
 generate k-points for:    8    8    8

 Generating k-lattice:

  Cartesian coordinates                     Fractional coordinates (reciprocal lattice)
     0.035427304 -0.012525443  0.000000000     0.125000000  0.000000000  0.000000000
     0.000000000  0.037576330  0.000000000     0.000000000  0.125000000  0.000000000
    -0.017713652 -0.012525443  0.030680945     0.000000000 -0.000000000  0.125000000

  Length of vectors
     0.037576330  0.037576330  0.037576330

  Shift w.r.t. Gamma in fractional coordinates (k-lattice)
     0.000000000  0.000000000  0.000000000

 Subroutine IBZKPT returns following result:

 Found     29 irreducible k-points:

 Following reciprocal coordinates:
            Coordinates               Weight
  0.000000  0.000000  0.000000      1.000000
  0.125000  0.000000  0.000000      8.000000
  0.250000  0.000000  0.000000      8.000000
  0.375000 -0.000000  0.000000      8.000000
  0.500000  0.000000  0.000000      4.000000
  0.125000  0.125000  0.000000      6.000000
  0.250000  0.125000  0.000000     24.000000
  0.375000  0.125000  0.000000     24.000000
  0.500000  0.125000  0.000000     24.000000
 -0.375000  0.125000  0.000000     24.000000
 -0.250000  0.125000  0.000000     24.000000
 -0.125000  0.125000  0.000000     12.000000
  0.250000  0.250000  0.000000      6.000000
  0.375000  0.250000  0.000000     24.000000
  0.500000  0.250000  0.000000     24.000000
 -0.375000  0.250000  0.000000     24.000000
 -0.250000  0.250000  0.000000     12.000000
  0.375000  0.375000  0.000000      6.000000
  0.500000  0.375000  0.000000     24.000000
 -0.375000  0.375000  0.000000     12.000000
  0.500000  0.500000  0.000000      3.000000
  0.375000  0.250000  0.125000     24.000000
  0.500000  0.250000  0.125000     48.000000
 -0.375000  0.250000  0.125000     24.000000
  0.500000  0.375000  0.125000     24.000000
 -0.375000  0.375000  0.125000     48.000000
 -0.250000  0.375000  0.125000     24.000000
 -0.375000  0.500000  0.125000     12.000000
 -0.250000  0.500000  0.250000      6.000000

 Following cartesian coordinates:
            Coordinates               Weight
  0.000000  0.000000  0.000000      1.000000
  0.035427 -0.012525  0.000000      8.000000
  0.070855 -0.025051  0.000000      8.000000
  0.106282 -0.037576  0.000000      8.000000
  0.141709 -0.050102  0.000000      4.000000
  0.035427  0.025051  0.000000      6.000000
  0.070855  0.012525  0.000000     24.000000
  0.106282  0.000000  0.000000     24.000000
  0.141709 -0.012525  0.000000     24.000000
 -0.106282  0.075153  0.000000     24.000000
 -0.070855  0.062627  0.000000     24.000000
 -0.035427  0.050102  0.000000     12.000000
  0.070855  0.050102  0.000000      6.000000
  0.106282  0.037576  0.000000     24.000000
  0.141709  0.025051  0.000000     24.000000
 -0.106282  0.112729  0.000000     24.000000
 -0.070855  0.100204  0.000000     12.000000
  0.106282  0.075153  0.000000      6.000000
  0.141709  0.062627  0.000000     24.000000
 -0.106282  0.150305  0.000000     12.000000
  0.141709  0.100204  0.000000      3.000000
  0.088568  0.025051  0.030681     24.000000
  0.123996  0.012525  0.030681     48.000000
 -0.123996  0.100204  0.030681     24.000000
  0.123996  0.050102  0.030681     24.000000
 -0.123996  0.137780  0.030681     48.000000
 -0.088568  0.125254  0.030681     24.000000
 -0.123996  0.175356  0.030681     12.000000
 -0.106282  0.150305  0.061362      6.000000

 Subroutine IBZKPT_HF returns following result:

 Found    512 k-points in 1st BZ
 the following    512 k-points will be used (e.g. in the exchange kernel)
 Following reciprocal coordinates:   # in IRBZ
  0.000000  0.000000  0.000000    0.00195312   1 t-inv F
  0.125000  0.000000  0.000000    0.00195312   2 t-inv F
  0.250000  0.000000  0.000000    0.00195312   3 t-inv F
  0.375000 -0.000000  0.000000    0.00195312   4 t-inv F
  0.500000  0.000000  0.000000    0.00195312   5 t-inv F
  0.125000  0.125000  0.000000    0.00195312   6 t-inv F
  0.250000  0.125000  0.000000    0.00195312   7 t-inv F
  0.375000  0.125000  0.000000    0.00195312   8 t-inv F
  0.500000  0.125000  0.000000    0.00195312   9 t-inv F
 -0.375000  0.125000  0.000000    0.00195312  10 t-inv F
 -0.250000  0.125000  0.000000    0.00195312  11 t-inv F
 -0.125000  0.125000  0.000000    0.00195312  12 t-inv F
  0.250000  0.250000  0.000000    0.00195312  13 t-inv F
  0.375000  0.250000  0.000000    0.00195312  14 t-inv F
  0.500000  0.250000  0.000000    0.00195312  15 t-inv F
 -0.375000  0.250000  0.000000    0.00195312  16 t-inv F
 -0.250000  0.250000  0.000000    0.00195312  17 t-inv F
  0.375000  0.375000  0.000000    0.00195312  18 t-inv F
  0.500000  0.375000  0.000000    0.00195312  19 t-inv F
 -0.375000  0.375000  0.000000    0.00195312  20 t-inv F
  0.500000  0.500000  0.000000    0.00195312  21 t-inv F
  0.375000  0.250000  0.125000    0.00195312  22 t-inv F
  0.500000  0.250000  0.125000    0.00195312  23 t-inv F
 -0.375000  0.250000  0.125000    0.00195312  24 t-inv F
  0.500000  0.375000  0.125000    0.00195312  25 t-inv F
 -0.375000  0.375000  0.125000    0.00195312  26 t-inv F
 -0.250000  0.375000  0.125000    0.00195312  27 t-inv F
 -0.375000  0.500000  0.125000    0.00195312  28 t-inv F
 -0.250000  0.500000  0.250000    0.00195312  29 t-inv F
  0.000000  0.125000  0.000000    0.00195312   2 t-inv F
  0.000000  0.000000  0.125000    0.00195312   2 t-inv F
 -0.125000 -0.125000 -0.125000    0.00195312   2 t-inv F
 -0.125000 -0.000000  0.000000    0.00195312   2 t-inv F
  0.000000 -0.125000 -0.000000    0.00195312   2 t-inv F
 -0.000000  0.000000 -0.125000    0.00195312   2 t-inv F
  0.125000  0.125000  0.125000    0.00195312   2 t-inv F
  0.000000  0.250000  0.000000    0.00195312   3 t-inv F
  0.000000  0.000000  0.250000    0.00195312   3 t-inv F
 -0.250000 -0.250000 -0.250000    0.00195312   3 t-inv F
 -0.250000 -0.000000  0.000000    0.00195312   3 t-inv F
  0.000000 -0.250000 -0.000000    0.00195312   3 t-inv F
 -0.000000  0.000000 -0.250000    0.00195312   3 t-inv F
  0.250000  0.250000  0.250000    0.00195312   3 t-inv F
  0.000000  0.375000 -0.000000    0.00195312   4 t-inv F
 -0.000000  0.000000  0.375000    0.00195312   4 t-inv F
 -0.375000 -0.375000 -0.375000    0.00195312   4 t-inv F
 -0.375000  0.000000  0.000000    0.00195312   4 t-inv F
  0.000000 -0.375000  0.000000    0.00195312   4 t-inv F
  0.000000  0.000000 -0.375000    0.00195312   4 t-inv F
  0.375000  0.375000  0.375000    0.00195312   4 t-inv F
  0.000000  0.500000  0.000000    0.00195312   5 t-inv F
  0.000000  0.000000  0.500000    0.00195312   5 t-inv F
 -0.500000 -0.500000 -0.500000    0.00195312   5 t-inv F
  0.000000  0.125000  0.125000    0.00195312   6 t-inv F
  0.125000  0.000000  0.125000    0.00195312   6 t-inv F
 -0.125000 -0.125000 -0.000000    0.00195312   6 t-inv F
[...]
   LBONE     =     F  B-component reconstruction in AE one-centre
   LVGVCALC  =     T  calculate vGv susceptibility
   LVGVAPPL  =     F  apply vGv susceptibility instead of pGv for G=0

 Random number generation:
   RANDOM_GENERATOR = DEFAULT
   PCG_SEED         = not used

 Static calculation
 charge density and potential will be updated during run
 non-spin polarized calculation
 Variant of blocked Davidson
 Davidson routine will perform the subspace rotation
 perform sub-space diagonalisation
    after iterative eigenvector-optimisation
 modified Broyden-mixing scheme, WC =      100.0
 initial mixing is a Kerker type mixing with AMIX =  0.4000 and BMIX =      1.0000
 Hartree-type preconditioning will be used
 using additional bands           34
 reciprocal scheme for non local part
 use partial core corrections
 calculate Harris-corrections to forces
   (improved forces if not selfconsistent)
 use gradient corrections
 use of overlap-Matrix (Vanderbilt PP)
 Gauss-broadening in eV      SIGMA  =   0.05

  energy-cutoff  :      403.38
  volume of cell :       47.82
      direct lattice vectors                 reciprocal lattice vectors
     3.528352040  0.000000000  2.037095000     0.283418431 -0.100203547  0.000000000
     1.176117347  3.326562205  2.037095000     0.000000000  0.300610642  0.000000000
     0.000000000  0.000000000  4.074190000    -0.141709216 -0.100203547  0.245447561

[...]

 old parameters found on file WAVECAR:
  energy-cutoff  :      403.38
  volume of cell :       47.82
      direct lattice vectors                 reciprocal lattice vectors
     3.528352040  0.000000000  2.037095000     0.283418431 -0.100203547  0.000000000
     1.176117347  3.326562205  2.037095000     0.000000000  0.300610642  0.000000000
     0.000000000  0.000000000  4.074190000    -0.141709216 -0.100203547  0.245447561

  length of vectors

 k-points in units of 2pi/SCALE and weight: Automatic kpoint scheme
   0.00000000  0.00000000  0.00000000       0.002
   0.03542730 -0.01252544  0.00000000       0.016
   0.07085461 -0.02505089  0.00000000       0.016
   0.10628191 -0.03757633  0.00000000       0.016
   0.14170922 -0.05010177  0.00000000       0.008
   0.03542730  0.02505089  0.00000000       0.012
   0.07085461  0.01252544  0.00000000       0.047
   0.10628191  0.00000000  0.00000000       0.047
   0.14170922 -0.01252544  0.00000000       0.047
  -0.10628191  0.07515266  0.00000000       0.047
  -0.07085461  0.06262722  0.00000000       0.047
  -0.03542730  0.05010177  0.00000000       0.023
   0.07085461  0.05010177  0.00000000       0.012
   0.10628191  0.03757633  0.00000000       0.047
   0.14170922  0.02505089  0.00000000       0.047
  -0.10628191  0.11272899  0.00000000       0.047
  -0.07085461  0.10020355  0.00000000       0.023
   0.10628191  0.07515266  0.00000000       0.012
   0.14170922  0.06262722  0.00000000       0.047
  -0.10628191  0.15030532  0.00000000       0.023
   0.14170922  0.10020355  0.00000000       0.006
   0.08856826  0.02505089  0.03068095       0.047
   0.12399556  0.01252544  0.03068095       0.094
  -0.12399556  0.10020355  0.03068095       0.047
   0.12399556  0.05010177  0.03068095       0.047
  -0.12399556  0.13777988  0.03068095       0.094
  -0.08856826  0.12525443  0.03068095       0.047
  -0.12399556  0.17535621  0.03068095       0.023
  -0.10628191  0.15030532  0.06136189       0.012

 k-points in reciprocal lattice and weights: Automatic kpoint scheme
   0.00000000  0.00000000  0.00000000       0.002
   0.12500000  0.00000000  0.00000000       0.016
   0.25000000  0.00000000  0.00000000       0.016
   0.37500000 -0.00000000  0.00000000       0.016
   0.50000000  0.00000000  0.00000000       0.008
   0.12500000  0.12500000  0.00000000       0.012
   0.25000000  0.12500000  0.00000000       0.047
   0.37500000  0.12500000  0.00000000       0.047
   0.50000000  0.12500000  0.00000000       0.047
  -0.37500000  0.12500000  0.00000000       0.047
  -0.25000000  0.12500000  0.00000000       0.047
  -0.12500000  0.12500000  0.00000000       0.023
   0.25000000  0.25000000  0.00000000       0.012
   0.37500000  0.25000000  0.00000000       0.047
   0.50000000  0.25000000  0.00000000       0.047
  -0.37500000  0.25000000  0.00000000       0.047
  -0.25000000  0.25000000  0.00000000       0.023
   0.37500000  0.37500000  0.00000000       0.012
   0.50000000  0.37500000  0.00000000       0.047
  -0.37500000  0.37500000  0.00000000       0.023
   0.50000000  0.50000000  0.00000000       0.006
   0.37500000  0.25000000  0.12500000       0.047
   0.50000000  0.25000000  0.12500000       0.094
  -0.37500000  0.25000000  0.12500000       0.047
   0.50000000  0.37500000  0.12500000       0.047
  -0.37500000  0.37500000  0.12500000       0.094
  -0.25000000  0.37500000  0.12500000       0.047
  -0.37500000  0.50000000  0.12500000       0.023
  -0.25000000  0.50000000  0.25000000       0.012

 position of ions in fractional coordinates (direct lattice)
   0.00000000  0.00000000  0.00000000
   0.25000000  0.25000000  0.25000000

 position of ions in cartesian coordinates  (Angst):
   0.00000000  0.00000000  0.00000000
   1.17611735  0.83164055  2.03709500

 k-point     1 :   0.0000 0.0000 0.0000  plane waves:     893
 k-point     2 :   0.1250 0.0000 0.0000  plane waves:     893
 k-point     3 :   0.2500 0.0000 0.0000  plane waves:     890
 k-point     4 :   0.3750-0.0000 0.0000  plane waves:     878
 k-point     5 :   0.5000 0.0000 0.0000  plane waves:     886
 k-point     6 :   0.1250 0.1250 0.0000  plane waves:     889
 k-point     7 :   0.2500 0.1250 0.0000  plane waves:     885
 k-point     8 :   0.3750 0.1250 0.0000  plane waves:     876
 k-point     9 :   0.5000 0.1250 0.0000  plane waves:     883
 k-point    10 :  -0.3750 0.1250 0.0000  plane waves:     873
 k-point    11 :  -0.2500 0.1250 0.0000  plane waves:     877
 k-point    12 :  -0.1250 0.1250 0.0000  plane waves:     887
 k-point    13 :   0.2500 0.2500 0.0000  plane waves:     881
 k-point    14 :   0.3750 0.2500 0.0000  plane waves:     876
 k-point    15 :   0.5000 0.2500 0.0000  plane waves:     875
 k-point    16 :  -0.3750 0.2500 0.0000  plane waves:     871
 k-point    17 :  -0.2500 0.2500 0.0000  plane waves:     883
 k-point    18 :   0.3750 0.3750 0.0000  plane waves:     870
 k-point    19 :   0.5000 0.3750 0.0000  plane waves:     877
 k-point    20 :  -0.3750 0.3750 0.0000  plane waves:     874
 k-point    21 :   0.5000 0.5000 0.0000  plane waves:     894
 k-point    22 :   0.3750 0.2500 0.1250  plane waves:     880
 k-point    23 :   0.5000 0.2500 0.1250  plane waves:     876
 k-point    24 :  -0.3750 0.2500 0.1250  plane waves:     882
 k-point    25 :   0.5000 0.3750 0.1250  plane waves:     880
 k-point    26 :  -0.3750 0.3750 0.1250  plane waves:     884
 k-point    27 :  -0.2500 0.3750 0.1250  plane waves:     885
 k-point    28 :  -0.3750 0.5000 0.1250  plane waves:     876
 k-point    29 :  -0.2500 0.5000 0.2500  plane waves:     876

 maximum and minimum number of plane-waves per node :       894      870

 maximum number of plane-waves:       894
 maximum index in each direction:
   IXMAX=    7   IYMAX=    6   IZMAX=    6
   IXMIN=   -7   IYMIN=   -7   IZMIN=   -6

 serial   3D FFT for wavefunctions
 parallel 3D FFT for charge:
    minimum data exchange during FFTs selected (reduces bandwidth)

 Broyden mixing: mesh for mixing (old mesh)
   NGX = 13   NGY = 13   NGZ = 13
  (NGX  = 40   NGY  = 40   NGZ  = 40)
  gives a total of   2197 points

 charge density for first step will be calculated from the start-wavefunctions

 Maximum index for augmentation-charges          349 (set IRDMAX)

 initial charge from wavefunction
 First call to EWALD:  gamma=   0.488
 Maximum number of real-space cells 3x 3x 3
 Maximum number of reciprocal cells 3x 3x 3

--------------------------------------- Ionic step        1  -------------------------------------------

--------------------------------------- Iteration      1(   1)  ---------------------------------------

 eigenvalue-minimisations  :  3840
 total energy-change (2. order) :-0.9025353E+01  (-0.4963675E-05)
 number of electron      27.9999769 magnetization
 augmentation part       16.8586150 magnetization

 Broyden mixing:
  rms(total) = 0.20105E-03    rms(broyden)= 0.20103E-03
  rms(prec ) = 0.67674E-03
  weight for this iteration     100.00

 Free energy of the ion-electron system (eV)
  alpha Z        PSCENC =       122.53498757
  Ewald energy   TEWEN  =     -2638.67903889
  -Hartree energ DENC   =     -1545.25221451
  -exchange      EXHF   =         0.00000000
  -V(xc)+E(xc)   XCENC  =       145.53500936
  PAW double counting   =      4426.29081945    -5301.01350959
  entropy T*S    EENTRO =        -0.00031080
  eigenvalues    EBANDS =      -410.88830261
  atomic energy  EATOM  =      5192.44720712
  Solvation  Ediel_sol  =         0.00000000
  free energy    TOTEN  =        -9.02535289 eV

  energy without entropy =       -9.02504209  energy(sigma->0) =       -9.02519749

--------------------------------------- Iteration      1(   2)  ---------------------------------------

 eigenvalue-minimisations  :  1824
 total energy-change (2. order) :-0.2742636E-06  (-0.7344588E-07)
 number of electron      27.9999769 magnetization
 augmentation part       16.8586150 magnetization

 Free energy of the ion-electron system (eV)
  alpha Z        PSCENC =       122.53498757
  Ewald energy   TEWEN  =     -2638.67903889
  -Hartree energ DENC   =     -1545.26685511
  -exchange      EXHF   =         0.00000000
  -V(xc)+E(xc)   XCENC  =       145.53553905
  PAW double counting   =      4426.33347033    -5301.06914419
  entropy T*S    EENTRO =        -0.00031073
  eigenvalues    EBANDS =      -410.86120831
  atomic energy  EATOM  =      5192.44720712
  Solvation  Ediel_sol  =         0.00000000
  free energy    TOTEN  =        -9.02535316 eV

  energy without entropy =       -9.02504243  energy(sigma->0) =       -9.02519779

 average (electrostatic) potential at core
  the test charge radii are     0.9911
  (the norm of the test charge is              1.0000)
       1 -74.8106       2 -74.8106

 E-fermi :   4.4670     XC(G=0):  -9.6666     alpha+bet : -9.8618

 val. band max:        4.1635758614   @ k =   0.1250   0.0000   0.0000
 cond. band min:       4.4745360822   @ k =   0.0000   0.0000   0.0000
 fundamental gap:      0.3109602207
 Fermi energy:         4.4670122362

 k-point     1 :       0.0000    0.0000    0.0000
  band No.  band energies     occupation
      1     -20.2642      2.00000
      2     -20.2642      2.00000
      3     -20.2642      2.00000
      4     -20.2326      2.00000
      5     -20.2326      2.00000
      6     -20.0495      2.00000
      7     -20.0495      2.00000
      8     -20.0495      2.00000
      9     -20.0406      2.00000
     10     -20.0406      2.00000
     11      -7.8928      2.00000
     12       4.0193      2.00000
     13       4.4745      0.83148
     14       4.4745      0.83148
     15       4.4746      0.82942
     16       7.0031      0.00000
     17       7.0031      0.00000
     18       7.0031      0.00000
     19      10.7708      0.00000
     20      13.8133      0.00000
     21      13.8133      0.00000
     22      15.1421      0.00000
     23      15.1421      0.00000
     24      15.1421      0.00000
     25      18.0611      0.00000
     26      28.6225      0.00000
     27      28.6225      0.00000
     28      28.6225      0.00000
     29      29.8753      0.00000
     30      29.8754      0.00000
     31      29.8754      0.00000
     32      30.0951      0.00000
     33      30.0952      0.00000
     34      30.0952      0.00000
     35      31.1723      0.00000
     36      31.1723      0.00000
     37      37.5454      0.00000
     38      41.9553      0.00000
     39      42.5565      0.00000
     40      42.5566      0.00000
     41      42.5566      0.00000
     42      42.7796      0.00000
     43      42.7796      0.00000
     44      42.7796      0.00000
     45      43.8687      0.00000
     46      43.8687      0.00000
     47      43.8687      0.00000
     48      43.9160      0.00000

[...]

 k-point    29 :      -0.2500    0.5000    0.2500
  band No.  band energies     occupation
      1     -20.3054      2.00000
      2     -20.3053      2.00000
      3     -20.1820      2.00000
      4     -20.1820      2.00000
      5     -20.1406      2.00000
      6     -20.1406      2.00000
      7     -20.1129      2.00000
      8     -20.1129      2.00000
      9     -19.9928      2.00000
     10     -19.9928      2.00000
     11      -4.1307      2.00000
     12      -4.1306      2.00000
     13       0.8249      2.00000
     14       0.8250      2.00000
     15       8.5811      0.00000
     16       8.5811      0.00000
     17       9.1593      0.00000
     18       9.1593      0.00000
     19      15.0871      0.00000
     20      15.0871      0.00000
     21      17.0821      0.00000
     22      17.0821      0.00000
     23      20.6940      0.00000
     24      20.6940      0.00000
     25      21.2319      0.00000
     26      21.2320      0.00000
     27      23.7701      0.00000
     28      23.7702      0.00000
     29      25.4815      0.00000
     30      25.4816      0.00000
     31      27.5484      0.00000
     32      27.5484      0.00000
     33      29.8500      0.00000
     34      29.8501      0.00000
     35      29.8715      0.00000
     36      29.8715      0.00000
     37      30.5200      0.00000
     38      30.5201      0.00000
     39      37.5981      0.00000
     40      37.5982      0.00000
     41      37.7648      0.00000
     42      37.7649      0.00000
     43      42.1000      0.00000
     44      42.1000      0.00000
     45      42.4813      0.00000
     46      42.4813      0.00000
     47      45.4240      0.00000
     48      45.4241      0.00000

 soft charge-density along one line, spin component           1
         0         1         2         3         4         5         6         7         8         9
 total charge-density along one line

------------------------ aborting loop because EDIFF is reached ----------------------------------------

  FORCE on cell =-STRESS in cart. coord.  units (eV):
  Direction    XX          YY          ZZ          XY          YZ          ZX
  Alpha Z   122.53499   122.53499   122.53499
  Ewald    -879.56008  -879.56008  -879.56008     0.00000    -0.00000     0.00000
  Hartree   515.09522   515.09522   515.09522     0.00000     0.00000     0.00000
  E(xc)    -164.57565  -164.57563  -164.57570    -0.00002    -0.00003    -0.00004
  Local     -46.31508   -46.31550   -46.31338     0.00060     0.00104     0.00147
  n-local    53.09892    56.04594    60.97478    -1.25800    -0.74782    -0.01749
  augment   251.98329   251.98371   251.98162    -0.00059    -0.00102    -0.00145
  Kinetic   138.98106   142.78670   150.33633    -0.28298     0.38487    -0.31313
  Fock        0.00000     0.00000     0.00000     0.00000     0.00000     0.00000
  Total      -0.09606    -0.09606    -0.09606    -0.00000     0.00000     0.00000
  in kB      -3.21844    -3.21844    -3.21844    -0.00000     0.00000     0.00000

 VOLUME and BASIS-vectors are now :
  energy-cutoff  :      403.38
  volume of cell :       47.82
      direct lattice vectors                 reciprocal lattice vectors
     3.528352040  0.000000000  2.037095000     0.283418431 -0.100203547  0.000000000
     1.176117347  3.326562205  2.037095000     0.000000000  0.300610642  0.000000000
     0.000000000  0.000000000  4.074190000    -0.141709216 -0.100203547  0.245447561

  length of vectors
     4.074190000  4.074190000  4.074190000     0.300610642  0.300610642  0.300610642

 FORCES acting on ions
    electron-ion (+dipol)            ewald-force                    non-local-force                 convergence-correction
   0.322E-05 0.228E-05 -.235E-05   -.111E-14 -.111E-13 0.155E-13   0.266E-16 -.195E-16 -.174E-16   -.906E-08 -.641E-08 -.157E-07
   -.322E-05 -.228E-05 0.235E-05   0.201E-14 0.105E-13 -.131E-13   -.303E-16 0.269E-16 0.321E-16   0.906E-08 0.641E-08 0.157E-07
   0.896E-12 0.531E-12 0.125E-12   0.906E-15 -.622E-15 0.242E-14   -.365E-17 0.737E-17 0.148E-16   0.178E-13 0.189E-12 -.346E-13

 POSITION                                       TOTAL-FORCE (eV/Angst)
      0.00000      0.00000      0.00000        -0.000000     -0.000000     -0.000000
      1.17612      0.83164      2.03709         0.000000      0.000000      0.000000
    total drift:                                0.000000      0.000000      0.000000

  FREE ENERGIE OF THE ION-ELECTRON SYSTEM (eV)
  free  energy   TOTEN  =        -9.02535316 eV

  energy  without entropy=       -9.02504243  energy(sigma->0) =       -9.02519779

 writing wavefunctions