 vasp.6.4.3 19Mar24 (build Jun 26 2024 13:02:28) complex

 executed on             LinuxIFC date 2025.08.08  19:02:14

 INCAR:
   ENCUT = 312.39000000000004
   IBRION = -1
   ISMEAR = 0
   ISYM = 2
   LCHARG = True
   LWAVE = True
   SIGMA = 0.05
   SYSTEM = Al

 POTCAR:  PAW_PBE Al 04Jan2001
|           W    W    AA    RRRRR   N    N  II  N    N   GGGG   !!!           |
|           W    W   A  A   R    R  NN   N  II  NN   N  G    G  !!!           |
|           W    W  A    A  R    R  N N  N  II  N N  N  G       !!!           |
|           W WW W  AAAAAA  RRRRR   N  N N  II  N  N N  G  GGG   !            |
|           WW  WW  A    A  R   R   N   NN  II  N   NN  G    G                |
|           W    W  A    A  R    R  N    N  II  N    N   GGGG   !!!           |
|     For optimal performance we recommend to set                             |
|       NCORE = 2 up to number-of-cores-per-socket                            |
|     This setting can greatly improve the performance of VASP for DFT.       |
|     The default, NCORE=1 might be grossly inefficient on modern             |
|     multi-core architectures or massively parallel machines. Do your        |
|     Unfortunately you need to use the default for GW and RPA                |
|     calculations (for HF NCORE is supported but not extensively tested      |
|     yet).                                                                   |

 POTCAR:  PAW_PBE Al 04Jan2001
   VRHFIN =Al: s2p1

   TITEL  = PAW_PBE Al 04Jan2001
   POMASS =   26.981; ZVAL   =    3.000    mass and valenz
   ENMAX  =  240.300; ENMIN  =  180.225 eV

PAW_PBE Al 04Jan2001                    :

 POSCAR: Al4
  positions in direct lattice

 exchange-correlation table for PE
   RHO(1)=    0.500       N(1)  =     2000
   RHO(2)=  100.500       N(2)  =     4000

 ion  position               nearest neighbor table
   1  0.000  0.000  0.000-   4 2.86   4 2.86   2 2.86   3 2.86   2 2.86   2 2.86   2 2.86   3 2.86
                             3 2.86   3 2.86   4 2.86   4 2.86
   2  0.000  0.500  0.500-   3 2.86   3 2.86   1 2.86   4 2.86   1 2.86   1 2.86   1 2.86   4 2.86
                             4 2.86   4 2.86   3 2.86   3 2.86
   3  0.500  0.000  0.500-   2 2.86   2 2.86   1 2.86   4 2.86   1 2.86   4 2.86   4 2.86   1 2.86
                             4 2.86   1 2.86   2 2.86   2 2.86
   4  0.500  0.500  0.000-   1 2.86   1 2.86   2 2.86   3 2.86   2 2.86   3 2.86   3 2.86   3 2.86
                             2 2.86   2 2.86   1 2.86   1 2.86

  LATTYP: Found a simple cubic cell.
 ALAT       =     4.0402100000

  Lattice vectors:

 A1 = (   4.0402100000,   0.0000000000,   0.0000000000)
 A2 = (   0.0000000000,   4.0402100000,   0.0000000000)
 A3 = (   0.0000000000,   0.0000000000,   4.0402100000)

Analysis of symmetry for initial positions (statically):
 Subroutine PRICEL returns following result:

  LATTYP: Found a face centered cubic cell.
 ALAT       =     4.0402100000

[...]

   4 primitive cells build up your supercell.

 Routine SETGRP: Setting up the symmetry group for a
 simple cubic supercell.

 Subroutine GETGRP returns: Found 48 space group operations
 (whereof 48 operations were pure point group operations)
 out of a pool of 48 trial point group operations.

The static configuration has the point symmetry O_h .

Analysis of symmetry for dynamics (positions and initial velocities):
 Subroutine PRICEL returns following result:

  LATTYP: Found a face centered cubic cell.
 ALAT       =     4.0402100000

  Lattice vectors:

 A1 = (   2.0201050000,  -2.0201050000,   0.0000000000)
 A2 = (   2.0201050000,   0.0000000000,   2.0201050000)
 A3 = (   0.0000000000,  -2.0201050000,   2.0201050000)

   4 primitive cells build up your supercell.

 Routine SETGRP: Setting up the symmetry group for a
 simple cubic supercell.

 Subroutine GETGRP returns: Found 48 space group operations
 (whereof 48 operations were pure point group operations)
 out of a pool of 48 trial point group operations.

The dynamic configuration has the point symmetry O_h .

 Subroutine INISYM returns: Found 48 space group operations
 (whereof 48 operations are pure point group operations),
 and found     4 'primitive' translations

                                     Primitive cell

  volume of cell :      16.4874

  direct lattice vectors                    reciprocal lattice vectors
     2.020105000 -2.020105000  0.000000000     0.247511887 -0.247511887 -0.247511887
     2.020105000  0.000000000  2.020105000     0.247511887  0.247511887  0.247511887
     0.000000000 -2.020105000  2.020105000    -0.247511887 -0.247511887  0.247511887

  length of vectors
     2.856859888  2.856859888  2.856859888     0.428703163  0.428703163  0.428703163

  position of ions in fractional coordinates (direct lattice)
     0.000000000  0.000000000  0.000000000

  ion indices of the primitive-cell ions
   primitive index   ion index
                 1           1

 KPOINTS: Automatic kpoint scheme

Automatic generation of k-mesh.
 Grid dimensions read from file:
 generate k-points for:   12   12   12

 Generating k-lattice:

  Cartesian coordinates                     Fractional coordinates (reciprocal lattice)
     0.020625991 -0.000000000  0.000000000     0.083333333 -0.000000000  0.000000000
     0.000000000  0.020625991  0.000000000     0.000000000  0.083333333  0.000000000
    -0.000000000 -0.000000000  0.020625991    -0.000000000 -0.000000000  0.083333333

  Length of vectors
     0.020625991  0.020625991  0.020625991

  Shift w.r.t. Gamma in fractional coordinates (k-lattice)
     0.000000000  0.000000000  0.000000000

 Subroutine IBZKPT returns following result:

 Found     84 irreducible k-points:

 Following reciprocal coordinates:
            Coordinates               Weight
  0.000000  0.000000  0.000000      1.000000
  0.083333  0.000000  0.000000      6.000000
  0.166667  0.000000  0.000000      6.000000
  0.250000  0.000000  0.000000      6.000000
  0.333333 -0.000000  0.000000      6.000000
  0.416667  0.000000  0.000000      6.000000
  0.500000  0.000000  0.000000      3.000000
  0.083333  0.083333  0.000000     12.000000
  0.166667  0.083333  0.000000     24.000000
  0.250000  0.083333  0.000000     24.000000
  0.333333  0.083333  0.000000     24.000000
  0.416667  0.083333  0.000000     24.000000
  0.500000  0.083333  0.000000     12.000000
  0.166667  0.166667  0.000000     12.000000
  0.250000  0.166667  0.000000     24.000000
  0.333333  0.166667  0.000000     24.000000
  0.416667  0.166667  0.000000     24.000000
  0.500000  0.166667  0.000000     12.000000
  0.250000  0.250000  0.000000     12.000000
  0.333333  0.250000  0.000000     24.000000
  0.416667  0.250000  0.000000     24.000000
  0.500000  0.250000  0.000000     12.000000
  0.333333  0.333333  0.000000     12.000000
  0.416667  0.333333  0.000000     24.000000
  0.500000  0.333333  0.000000     12.000000
  0.416667  0.416667  0.000000     12.000000
  0.500000  0.416667  0.000000     12.000000
  0.500000  0.500000  0.000000      3.000000
  0.083333  0.083333  0.083333      8.000000
  0.166667  0.083333  0.083333     24.000000
  0.250000  0.083333  0.083333     24.000000
  0.333333  0.083333  0.083333     24.000000
  0.416667  0.083333  0.083333     24.000000
  0.500000  0.083333  0.083333     12.000000
  0.166667  0.166667  0.083333     24.000000
  0.250000  0.166667  0.083333     48.000000
  0.333333  0.166667  0.083333     48.000000
  0.416667  0.166667  0.083333     48.000000
  0.500000  0.166667  0.083333     24.000000
  0.250000  0.250000  0.083333     24.000000
  0.333333  0.250000  0.083333     48.000000
  0.416667  0.250000  0.083333     48.000000
  0.500000  0.250000  0.083333     24.000000
  0.333333  0.333333  0.083333     24.000000
  0.416667  0.333333  0.083333     48.000000
  0.500000  0.333333  0.083333     24.000000
  0.416667  0.416667  0.083333     24.000000
  0.500000  0.416667  0.083333     24.000000
  0.500000  0.500000  0.083333      6.000000
  0.166667  0.166667  0.166667      8.000000
  0.250000  0.166667  0.166667     24.000000
  0.333333  0.166667  0.166667     24.000000
  0.416667  0.166667  0.166667     24.000000
  0.500000  0.166667  0.166667     12.000000
  0.250000  0.250000  0.166667     24.000000
  0.333333  0.250000  0.166667     48.000000
  0.416667  0.250000  0.166667     48.000000
  0.500000  0.250000  0.166667     24.000000
  0.333333  0.333333  0.166667     24.000000
  0.416667  0.333333  0.166667     48.000000
[...]
  0.416667  0.333333  0.250000     48.000000
  0.500000  0.333333  0.250000     24.000000
  0.416667  0.416667  0.250000     24.000000
  0.500000  0.416667  0.250000     24.000000
  0.500000  0.500000  0.250000      6.000000
  0.333333  0.333333  0.333333      8.000000
  0.416667  0.333333  0.333333     24.000000
  0.500000  0.333333  0.333333     12.000000
  0.416667  0.416667  0.333333     24.000000
  0.500000  0.416667  0.333333     24.000000
  0.500000  0.500000  0.333333      6.000000
  0.416667  0.416667  0.416667      8.000000
  0.500000  0.416667  0.416667     12.000000
  0.500000  0.500000  0.416667      6.000000
  0.500000  0.500000  0.500000      1.000000

 Following cartesian coordinates:
            Coordinates               Weight
  0.000000  0.000000  0.000000      1.000000
  0.020626 -0.000000  0.000000      6.000000
  0.041252 -0.000000  0.000000      6.000000
  0.061878 -0.000000  0.000000      6.000000
  0.082504 -0.000000  0.000000      6.000000
  0.103130 -0.000000  0.000000      6.000000
  0.123756 -0.000000  0.000000      3.000000
  0.020626  0.020626  0.000000     12.000000
  0.041252  0.020626  0.000000     24.000000
  0.061878  0.020626  0.000000     24.000000
  0.082504  0.020626  0.000000     24.000000
  0.103130  0.020626  0.000000     24.000000
  0.123756  0.020626  0.000000     12.000000
  0.041252  0.041252  0.000000     12.000000
  0.061878  0.041252  0.000000     24.000000
  0.082504  0.041252  0.000000     24.000000
  0.103130  0.041252  0.000000     24.000000
  0.123756  0.041252  0.000000     12.000000
  0.061878  0.061878  0.000000     12.000000
  0.082504  0.061878  0.000000     24.000000
  0.103130  0.061878  0.000000     24.000000
  0.123756  0.061878  0.000000     12.000000
  0.082504  0.082504  0.000000     12.000000
  0.103130  0.082504  0.000000     24.000000
  0.123756  0.082504  0.000000     12.000000
  0.103130  0.103130  0.000000     12.000000
  0.123756  0.103130  0.000000     12.000000
  0.123756  0.123756  0.000000      3.000000
  0.020626  0.020626  0.020626      8.000000
  0.041252  0.020626  0.020626     24.000000
  0.061878  0.020626  0.020626     24.000000
  0.082504  0.020626  0.020626     24.000000
  0.103130  0.020626  0.020626     24.000000
  0.123756  0.020626  0.020626     12.000000
  0.041252  0.041252  0.020626     24.000000
  0.061878  0.041252  0.020626     48.000000
  0.082504  0.041252  0.020626     48.000000
  0.103130  0.041252  0.020626     48.000000
  0.123756  0.041252  0.020626     24.000000
  0.061878  0.061878  0.020626     24.000000
  0.082504  0.061878  0.020626     48.000000
  0.103130  0.061878  0.020626     48.000000
  0.123756  0.061878  0.020626     24.000000
[...]
   0.41666667  0.41666667  0.08333333       0.014
   0.50000000  0.41666667  0.08333333       0.014
   0.50000000  0.50000000  0.08333333       0.003
   0.16666667  0.16666667  0.16666667       0.005
   0.25000000  0.16666667  0.16666667       0.014
   0.33333333  0.16666667  0.16666667       0.014
   0.41666667  0.16666667  0.16666667       0.014
   0.50000000  0.16666667  0.16666667       0.007
   0.25000000  0.25000000  0.16666667       0.014
   0.33333333  0.25000000  0.16666667       0.028
   0.41666667  0.25000000  0.16666667       0.028
   0.50000000  0.25000000  0.16666667       0.014
   0.33333333  0.33333333  0.16666667       0.014
   0.41666667  0.33333333  0.16666667       0.028
[...]
   0.41666667  0.33333333  0.25000000       0.028
   0.50000000  0.33333333  0.25000000       0.014
   0.41666667  0.41666667  0.25000000       0.014
   0.50000000  0.41666667  0.25000000       0.014
   0.50000000  0.50000000  0.25000000       0.003
   0.33333333  0.33333333  0.33333333       0.005
   0.41666667  0.33333333  0.33333333       0.014
   0.50000000  0.33333333  0.33333333       0.007
   0.41666667  0.41666667  0.33333333       0.014
   0.50000000  0.41666667  0.33333333       0.014
   0.50000000  0.50000000  0.33333333       0.003
   0.41666667  0.41666667  0.41666667       0.005
   0.50000000  0.41666667  0.41666667       0.007
   0.50000000  0.50000000  0.41666667       0.003
   0.50000000  0.50000000  0.50000000       0.001

 position of ions in fractional coordinates (direct lattice)
   0.00000000  0.00000000  0.00000000
   0.00000000  0.50000000  0.50000000
   0.50000000  0.00000000  0.50000000
   0.50000000  0.50000000  0.00000000

 position of ions in cartesian coordinates  (Angst):
   0.00000000  0.00000000  0.00000000
   0.00000000  2.02010500  2.02010500
   2.02010500  0.00000000  2.02010500
   2.02010500  2.02010500  0.00000000

 k-point     1 :   0.0000 0.0000 0.0000  plane waves:     799
 k-point     2 :   0.0833 0.0000 0.0000  plane waves:     819
 k-point     3 :   0.1667 0.0000 0.0000  plane waves:     815
 k-point     4 :   0.2500 0.0000 0.0000  plane waves:     812
 k-point     5 :   0.3333-0.0000 0.0000  plane waves:     824
 k-point     6 :   0.4167 0.0000 0.0000  plane waves:     816
 k-point     7 :   0.5000 0.0000 0.0000  plane waves:     820
 k-point     8 :   0.0833 0.0833 0.0000  plane waves:     819
 k-point     9 :   0.1667 0.0833 0.0000  plane waves:     820
 k-point    10 :   0.2500 0.0833 0.0000  plane waves:     823
 k-point    11 :   0.3333 0.0833 0.0000  plane waves:     826
 k-point    12 :   0.4167 0.0833 0.0000  plane waves:     832
 k-point    13 :   0.5000 0.0833 0.0000  plane waves:     832
 k-point    14 :   0.1667 0.1667 0.0000  plane waves:     818
 k-point    15 :   0.2500 0.1667 0.0000  plane waves:     823
 k-point    16 :   0.3333 0.1667 0.0000  plane waves:     833
 k-point    17 :   0.4167 0.1667 0.0000  plane waves:     831
 k-point    18 :   0.5000 0.1667 0.0000  plane waves:     826
 k-point    19 :   0.2500 0.2500 0.0000  plane waves:     822
 k-point    20 :   0.3333 0.2500 0.0000  plane waves:     831
 k-point    21 :   0.4167 0.2500 0.0000  plane waves:     825
 k-point    22 :   0.5000 0.2500 0.0000  plane waves:     824
 k-point    23 :   0.3333 0.3333 0.0000  plane waves:     840
 k-point    24 :   0.4167 0.3333 0.0000  plane waves:     825
 k-point    25 :   0.5000 0.3333 0.0000  plane waves:     820
 k-point    26 :   0.4167 0.4167 0.0000  plane waves:     834
 k-point    27 :   0.5000 0.4167 0.0000  plane waves:     824
 k-point    28 :   0.5000 0.5000 0.0000  plane waves:     840
 k-point    29 :   0.0833 0.0833 0.0833  plane waves:     826
 k-point    30 :   0.1667 0.0833 0.0833  plane waves:     821
 k-point    31 :   0.2500 0.0833 0.0833  plane waves:     823
 k-point    32 :   0.3333 0.0833 0.0833  plane waves:     827
 k-point    33 :   0.4167 0.0833 0.0833  plane waves:     832
 k-point    34 :   0.5000 0.0833 0.0833  plane waves:     822
 k-point    35 :   0.1667 0.1667 0.0833  plane waves:     823
 k-point    36 :   0.2500 0.1667 0.0833  plane waves:     820
 k-point    37 :   0.3333 0.1667 0.0833  plane waves:     825
 k-point    38 :   0.4167 0.1667 0.0833  plane waves:     831
 k-point    39 :   0.5000 0.1667 0.0833  plane waves:     824
 k-point    40 :   0.2500 0.2500 0.0833  plane waves:     824
 k-point    41 :   0.3333 0.2500 0.0833  plane waves:     834
 k-point    42 :   0.4167 0.2500 0.0833  plane waves:     826
 k-point    43 :   0.5000 0.2500 0.0833  plane waves:     824
 k-point    44 :   0.3333 0.3333 0.0833  plane waves:     832
 k-point    45 :   0.4167 0.3333 0.0833  plane waves:     828
 k-point    46 :   0.5000 0.3333 0.0833  plane waves:     824
 k-point    47 :   0.4167 0.4167 0.0833  plane waves:     830
 k-point    48 :   0.5000 0.4167 0.0833  plane waves:     822
 k-point    49 :   0.5000 0.5000 0.0833  plane waves:     836
 k-point    50 :   0.1667 0.1667 0.1667  plane waves:     820
 k-point    51 :   0.2500 0.1667 0.1667  plane waves:     821
 k-point    52 :   0.3333 0.1667 0.1667  plane waves:     831
 k-point    53 :   0.4167 0.1667 0.1667  plane waves:     828
 k-point    54 :   0.5000 0.1667 0.1667  plane waves:     828
 k-point    55 :   0.2500 0.2500 0.1667  plane waves:     829
 k-point    56 :   0.3333 0.2500 0.1667  plane waves:     830
 k-point    57 :   0.4167 0.2500 0.1667  plane waves:     818
 k-point    58 :   0.5000 0.2500 0.1667  plane waves:     820
 k-point    59 :   0.3333 0.3333 0.1667  plane waves:     822
 k-point    60 :   0.4167 0.3333 0.1667  plane waves:     824
[...]
 k-point    70 :   0.4167 0.3333 0.2500  plane waves:     828
 k-point    71 :   0.5000 0.3333 0.2500  plane waves:     828
 k-point    72 :   0.4167 0.4167 0.2500  plane waves:     828
 k-point    73 :   0.5000 0.4167 0.2500  plane waves:     836
 k-point    74 :   0.5000 0.5000 0.2500  plane waves:     824
 k-point    75 :   0.3333 0.3333 0.3333  plane waves:     814
 k-point    76 :   0.4167 0.3333 0.3333  plane waves:     831
 k-point    77 :   0.5000 0.3333 0.3333  plane waves:     828
 k-point    78 :   0.4167 0.4167 0.3333  plane waves:     827
 k-point    79 :   0.5000 0.4167 0.3333  plane waves:     838
 k-point    80 :   0.5000 0.5000 0.3333  plane waves:     832
 k-point    81 :   0.4167 0.4167 0.4167  plane waves:     840
 k-point    82 :   0.5000 0.4167 0.4167  plane waves:     840
 k-point    83 :   0.5000 0.5000 0.4167  plane waves:     844
 k-point    84 :   0.5000 0.5000 0.5000  plane waves:     840

 maximum and minimum number of plane-waves per node :       844      799

 maximum number of plane-waves:       844
 maximum index in each direction:
   IXMAX=    5   IYMAX=    5   IZMAX=    5
   IXMIN=   -6   IYMIN=   -6   IZMIN=   -6

 serial   3D FFT for wavefunctions
 parallel 3D FFT for charge:
    minimum data exchange during FFTs selected (reduces bandwidth)

 Broyden mixing: mesh for mixing (old mesh)
   NGX = 11   NGY = 11   NGZ = 11
  (NGX  = 36   NGY  = 36   NGZ  = 36)
  gives a total of   1331 points

 charge density for first step will be calculated from the start-wavefunctions

 Maximum index for augmentation-charges          277 (set IRDMAX)

 initial charge from wavefunction
 First call to EWALD:  gamma=   0.439
 Maximum number of real-space cells 3x 3x 3
 Maximum number of reciprocal cells 3x 3x 3

--------------------------------------- Ionic step        1  -------------------------------------------

--------------------------------------- Iteration      1(   1)  ---------------------------------------

 eigenvalue-minimisations  :  6384
 total energy-change (2. order) :-0.1496255E+02  (-0.1701222E-08)
 number of electron      11.9999994 magnetization
 augmentation part       -0.1532605 magnetization

 Broyden mixing:
  rms(total) = 0.16415E-04    rms(broyden)= 0.16415E-04
  rms(prec ) = 0.16708E-04
  weight for this iteration     100.00

 Free energy of the ion-electron system (eV)
  alpha Z        PSCENC =        -0.81487987
  Ewald energy   TEWEN  =      -294.13785363
  -Hartree energ DENC   =        -0.41323145
  -exchange      EXHF   =         0.00000000
  -V(xc)+E(xc)   XCENC  =      -104.51973921
  PAW double counting   =       588.86238694     -461.09699987
  entropy T*S    EENTRO =        -0.00287771
  eigenvalues    EBANDS =        43.00942045
  atomic energy  EATOM  =       214.15122755
  Solvation  Ediel_sol  =         0.00000000
  free energy    TOTEN  =       -14.96254680 eV

  energy without entropy =      -14.95966909  energy(sigma->0) =      -14.96110795

--------------------------------------- Iteration      1(   2)  ---------------------------------------

 eigenvalue-minimisations  :  5136
 total energy-change (2. order) :-0.2836487E-10  (-0.8423642E-10)
 number of electron      11.9999994 magnetization
 augmentation part       -0.1532605 magnetization

 Free energy of the ion-electron system (eV)
  alpha Z        PSCENC =        -0.81487987
  Ewald energy   TEWEN  =      -294.13785363
  -Hartree energ DENC   =        -0.41323164
  -exchange      EXHF   =         0.00000000
  -V(xc)+E(xc)   XCENC  =      -104.51973850
  PAW double counting   =       588.86808247     -461.10269525
  entropy T*S    EENTRO =        -0.00287771
  eigenvalues    EBANDS =        43.00941977
  atomic energy  EATOM  =       214.15122755
  Solvation  Ediel_sol  =         0.00000000
  free energy    TOTEN  =       -14.96254680 eV

  energy without entropy =      -14.95966909  energy(sigma->0) =      -14.96110795

 average (electrostatic) potential at core
  the test charge radii are     1.0406
  (the norm of the test charge is              1.0000)
       1 -72.6190       2 -72.6190       3 -72.6190       4 -72.6190

 E-fermi :   7.9947     XC(G=0): -10.1996     alpha+bet :-14.8877

 val. band max:        7.9919040747   @ k =   0.3333   0.2500   0.0000
 cond. band min:       8.0321203367   @ k =   0.4167   0.0833   0.0000
 fundamental gap:      0.0402162619
 Fermi energy:         7.9946872693

 k-point     1 :       0.0000    0.0000    0.0000
  band No.  band energies     occupation
      1      -3.1311      2.00000
      2       5.0832      2.00000
      3       5.0832      2.00000
      4       5.0832      2.00000
      5       6.4102      2.00000
      6       6.4102      2.00000
      7       6.4102      2.00000
      8      13.2820      0.00000
      9      13.2820      0.00000
     10      13.2820      0.00000
     11      13.6073      0.00000
     12      13.6073      0.00000
     13      13.6073      0.00000
     14      13.6073      0.00000
     15      13.6073      0.00000
     16      13.6073      0.00000
     17      17.0919      0.00000
     18      17.0919      0.00000
     19      17.0919      0.00000
     20      20.6715      0.00000
     21      20.6715      0.00000
     22      20.6715      0.00000
     23      22.1305      0.00000
     24      22.1305      0.00000
     25      22.1305      0.00000
     26      24.4843      0.00000
     27      27.5022      0.00000
     28      27.5022      0.00000
     29      30.3091      0.00000
     30      32.6659      0.00000
     31      32.6659      0.00000
     32      32.6659      0.00000
     33      33.5065      0.00000
     34      33.5065      0.00000
     35      33.5065      0.00000
     36      35.0160      0.00000
     37      35.0160      0.00000
     38      35.0160      0.00000
     39      35.0160      0.00000
     40      35.0160      0.00000
     41      35.0160      0.00000
     42      40.6190      0.00000
     43      40.6190      0.00000
     44      40.6190      0.00000
     45      41.3558      0.00000
     46      41.4612      0.00000
     47      41.4612      0.00000
     48      41.4612      0.00000

[...]

 k-point    84 :       0.5000    0.5000    0.5000
  band No.  band energies     occupation
      1       3.4130      2.00000
      2       3.4130      2.00000
      3       3.4130      2.00000
      4       3.4130      2.00000
      5       3.6287      2.00000
      6       3.6287      2.00000
      7       3.6287      2.00000
      8       3.6287      2.00000
      9      19.4270      0.00000
     10      19.4270      0.00000
     11      19.4270      0.00000
     12      19.4270      0.00000
     13      19.4270      0.00000
     14      19.4270      0.00000
     15      19.4270      0.00000
     16      19.4270      0.00000
     17      19.4962      0.00000
     18      19.4962      0.00000
     19      19.4962      0.00000
     20      19.4962      0.00000
     21      19.4962      0.00000
     22      19.4962      0.00000
     23      19.4962      0.00000
     24      19.4962      0.00000
     25      23.1440      0.00000
     26      23.1440      0.00000
     27      23.1440      0.00000
     28      23.1440      0.00000
     29      23.3205      0.00000
     30      23.3205      0.00000
     31      23.3205      0.00000
     32      23.3205      0.00000
     33      32.8716      0.00000
     34      32.8716      0.00000
     35      32.8716      0.00000
     36      32.8716      0.00000
     37      32.8716      0.00000
     38      32.8716      0.00000
     39      32.8716      0.00000
     40      32.8716      0.00000
     41      38.8768      0.00000
     42      38.8768      0.00000
     43      38.8768      0.00000
     44      38.8768      0.00000
     45      38.8768      0.00000
     46      38.8768      0.00000
     47      38.8768      0.00000
     48      38.8768      0.00000

 soft charge-density along one line, spin component           1
         0         1         2         3         4         5         6         7         8         9
 total charge-density along one line

------------------------ aborting loop because EDIFF is reached ----------------------------------------

  FORCE on cell =-STRESS in cart. coord.  units (eV):
  Direction    XX          YY          ZZ          XY          YZ          ZX
  Alpha Z    -0.81488    -0.81488    -0.81488
  Ewald     -98.04599   -98.04599   -98.04599    -0.00000     0.00000     0.00000
  Hartree     0.13774     0.13774     0.13774    -0.00000    -0.00000    -0.00000
  E(xc)     -34.27249   -34.27249   -34.27249     0.00000    -0.00000    -0.00000
  Local       1.38672     1.38672     1.38672     0.00000     0.00000     0.00000
  n-local    74.43450    75.18601    77.20797     0.28227     0.97914     0.42241
  augment    -4.08755    -4.08755    -4.08755     0.00000     0.00000     0.00000
  Kinetic    57.14852    60.30024    62.67088     1.96333    -7.91883    -1.73910
  Fock        0.00000     0.00000     0.00000     0.00000     0.00000     0.00000
  Total      -0.04708    -0.04708    -0.04708     0.00000    -0.00000     0.00000
  in kB      -1.14379    -1.14379    -1.14379     0.00000    -0.00000     0.00000

 VOLUME and BASIS-vectors are now :
  energy-cutoff  :      312.39
  volume of cell :       65.95
      direct lattice vectors                 reciprocal lattice vectors
     4.040210000  0.000000000  0.000000000     0.247511887 -0.000000000  0.000000000
     0.000000000  4.040210000  0.000000000     0.000000000  0.247511887  0.000000000
     0.000000000  0.000000000  4.040210000    -0.000000000 -0.000000000  0.247511887

  length of vectors
     4.040210000  4.040210000  4.040210000     0.247511887  0.247511887  0.247511887

 FORCES acting on ions
    electron-ion (+dipol)            ewald-force                    non-local-force                 convergence-correction
   -.221E-14 0.840E-15 0.103E-14   -.245E-14 -.444E-15 -.561E-15   0.207E-25 -.228E-25 -.886E-26   0.212E-15 0.671E-16 0.210E-16
   -.285E-14 -.237E-14 -.212E-14   -.241E-14 0.662E-15 0.373E-15   -.200E-25 -.107E-25 0.172E-25   0.184E-15 -.685E-16 -.199E-16
   -.424E-14 0.535E-15 0.274E-13   0.232E-14 -.649E-15 0.359E-15   -.173E-25 -.841E-26 0.205E-25   -.153E-15 0.738E-16 -.140E-16
   -.405E-14 -.291E-14 -.109E-13   0.235E-14 0.457E-15 -.478E-16   -.635E-26 0.764E-26 0.233E-26   -.140E-15 -.555E-16 0.279E-16
   -.134E-13 -.391E-14 0.153E-13   -.195E-15 0.245E-16 0.124E-15   -.230E-25 -.342E-25 0.312E-25   0.103E-15 0.169E-16 0.150E-16

 POSITION                                       TOTAL-FORCE (eV/Angst)
      0.00000      0.00000      0.00000         0.000000     -0.000000     -0.000000
      0.00000      2.02011      2.02011        -0.000000      0.000000     -0.000000
      2.02011      0.00000      2.02011        -0.000000      0.000000     -0.000000
      2.02011      2.02011      0.00000         0.000000     -0.000000      0.000000
    total drift:                               -0.000000     -0.000000      0.000000

  FREE ENERGIE OF THE ION-ELECTRON SYSTEM (eV)
  free  energy   TOTEN  =       -14.96254680 eV

  energy  without entropy=      -14.95966909  energy(sigma->0) =      -14.96110795

 writing wavefunctions