 vasp.6.4.3 19Mar24 (build Jun 26 2024 13:02:28) complex

 executed on             LinuxIFC date 2025.08.08  20:11:08

 INCAR:
   ENCUT = 303.1652
   IBRION = -1
   ISMEAR = 0
   ISYM = 2
   LCHARG = True
   LSORBIT = True
   LWAVE = True
   SAXIS = 0 0 1
   SIGMA = 0.05
   SYSTEM = Hg

 POTCAR:  PAW_PBE Hg 06Sep2000
|           W    W    AA    RRRRR   N    N  II  N    N   GGGG   !!!           |
|           W    W   A  A   R    R  NN   N  II  NN   N  G    G  !!!           |
|           W    W  A    A  R    R  N N  N  II  N N  N  G       !!!           |
|           W WW W  AAAAAA  RRRRR   N  N N  II  N  N N  G  GGG   !            |
|           WW  WW  A    A  R   R   N   NN  II  N   NN  G    G                |
|           W    W  A    A  R    R  N    N  II  N    N   GGGG   !!!           |
|     You use a magnetic or noncollinear calculation, but did not specify     |
|     the initial magnetic moment with the MAGMOM tag. Note that a            |
|     default of 1 will be used for all atoms. This ferromagnetic setup       |
|     may break the symmetry of the crystal, in particular it may rule        |
|     out finding an antiferromagnetic solution. Thence, we recommend         |
|     setting the initial magnetic moment manually or verifying carefully     |
|     that this magnetic setup is desired.                                    |

 POTCAR:  PAW_PBE Hg 06Sep2000
   VRHFIN =Hg: 10s 2d fine mesh  91

   TITEL  = PAW_PBE Hg 06Sep2000
   POMASS =  200.590; ZVAL   =   12.000    mass and valenz
   ENMAX  =  233.204; ENMIN  =  174.903 eV

PAW_PBE Hg 06Sep2000                    :

 POSCAR: Hg2
  positions in direct lattice

 exchange-correlation table for PE
   RHO(1)=    0.500       N(1)  =     2000
   RHO(2)=  100.500       N(2)  =     4000

 ion  position               nearest neighbor table
   1  0.000  0.000  0.000-   2 3.40   2 3.40   2 3.40   2 3.40   2 3.40   2 3.40   2 3.40   2 3.40

   2  0.500  0.500  0.500-   1 3.40   1 3.40   1 3.40   1 3.40   1 3.40   1 3.40   1 3.40   1 3.40

  LATTYP: Found a simple tetragonal cell.
 ALAT       =     4.1030500000
 C/A-ratio  =     0.8647981380

  Lattice vectors:

 A1 = (   4.1030500000,   0.0000000000,   0.0000000000)
 A2 = (   0.0000000000,   4.1030500000,   0.0000000000)
 A3 = (   0.0000000000,   0.0000000000,   3.5483100000)

Analysis of symmetry for initial positions (statically):
 Subroutine PRICEL returns following result:

  LATTYP: Found a body centered tetragonal cell.
 ALAT       =     4.1030500000
 C/A-ratio  =     0.8647981380

[...]

   2 primitive cells build up your supercell.

 Routine SETGRP: Setting up the symmetry group for a
 simple tetragonal supercell.

 Subroutine GETGRP returns: Found 16 space group operations
 (whereof 16 operations were pure point group operations)
 out of a pool of 16 trial point group operations.

The static configuration has the point symmetry D_4h.

Analysis of symmetry for dynamics (positions and initial velocities):
 Subroutine PRICEL returns following result:

[...]

The dynamic configuration has the point symmetry D_4h.

Analysis of structural, dynamic, and magnetic symmetry:
 Subroutine PRICEL returns following result:

  LATTYP: Found a body centered tetragonal cell.
 ALAT       =     4.1030500000
 C/A-ratio  =     0.8647981380

  Lattice vectors:

 A1 = (  -2.0515250000,  -2.0515250000,  -1.7741550000)
 A2 = (   2.0515250000,   2.0515250000,  -1.7741550000)
 A3 = (   2.0515250000,  -2.0515250000,   1.7741550000)

   2 primitive cells build up your supercell.

 Routine SETGRP: Setting up the symmetry group for a
 simple tetragonal supercell.

 Subroutine GETGRP returns: Found  2 space group operations
 (whereof  2 operations were pure point group operations)
 out of a pool of 16 trial point group operations.

The overall configuration has the point symmetry S_2 .

 Subroutine INISYM returns: Found  2 space group operations
 (whereof  2 operations are pure point group operations),
 and found     2 'primitive' translations

                                     Primitive cell

  volume of cell :      29.8679

  direct lattice vectors                    reciprocal lattice vectors
    -2.051525000 -2.051525000 -1.774155000     0.000000000 -0.243721134 -0.281824305
     2.051525000  2.051525000 -1.774155000     0.243721134 -0.000000000 -0.281824305
     2.051525000 -2.051525000  1.774155000     0.243721134 -0.243721134  0.000000000

  length of vectors
     3.400755154  3.400755154  3.400755154     0.372592177  0.372592177  0.344673734

  position of ions in fractional coordinates (direct lattice)
     0.000000000  0.000000000  0.000000000

  ion indices of the primitive-cell ions
   primitive index   ion index
                 1           1

 KPOINTS: Automatic kpoint scheme

Automatic generation of k-mesh.
 Grid dimensions read from file:
 generate k-points for:    8    8    8

 Generating k-lattice:

  Cartesian coordinates                     Fractional coordinates (reciprocal lattice)
     0.030465142 -0.000000000  0.000000000     0.125000000  0.000000000  0.000000000
     0.000000000  0.030465142  0.000000000     0.000000000  0.125000000  0.000000000
    -0.000000000 -0.000000000  0.035228038    -0.000000000 -0.000000000  0.125000000

  Length of vectors
     0.030465142  0.030465142  0.035228038

  Shift w.r.t. Gamma in fractional coordinates (k-lattice)
     0.000000000  0.000000000  0.000000000

 Subroutine IBZKPT returns following result:

 Found    260 irreducible k-points:

 Following reciprocal coordinates:
            Coordinates               Weight
  0.000000  0.000000  0.000000      1.000000
  0.125000  0.000000  0.000000      2.000000
  0.000000  0.125000  0.000000      2.000000
  0.250000  0.000000  0.000000      2.000000
  0.000000  0.250000  0.000000      2.000000
  0.375000 -0.000000  0.000000      2.000000
  0.000000  0.375000  0.000000      2.000000
  0.500000  0.000000  0.000000      1.000000
  0.000000  0.500000  0.000000      1.000000
  0.125000  0.125000  0.000000      2.000000
 -0.125000  0.125000  0.000000      2.000000
  0.250000  0.125000  0.000000      2.000000
 -0.125000  0.250000  0.000000      2.000000
 -0.250000  0.125000  0.000000      2.000000
  0.125000  0.250000  0.000000      2.000000
  0.375000  0.125000  0.000000      2.000000
 -0.125000  0.375000  0.000000      2.000000
 -0.375000  0.125000  0.000000      2.000000
  0.125000  0.375000  0.000000      2.000000
  0.500000  0.125000  0.000000      2.000000
 -0.125000  0.500000  0.000000      2.000000
  0.250000  0.250000  0.000000      2.000000
 -0.250000  0.250000  0.000000      2.000000
  0.375000  0.250000  0.000000      2.000000
 -0.250000  0.375000  0.000000      2.000000
 -0.375000  0.250000  0.000000      2.000000
  0.250000  0.375000  0.000000      2.000000
  0.500000  0.250000  0.000000      2.000000
 -0.250000  0.500000  0.000000      2.000000
  0.375000  0.375000  0.000000      2.000000
 -0.375000  0.375000  0.000000      2.000000
  0.500000  0.375000  0.000000      2.000000
 -0.375000  0.500000  0.000000      2.000000
  0.500000  0.500000  0.000000      1.000000
  0.000000  0.000000  0.125000      2.000000
  0.125000  0.000000  0.125000      2.000000
  0.000000  0.125000  0.125000      2.000000
 -0.125000  0.000000  0.125000      2.000000
  0.000000 -0.125000  0.125000      2.000000
  0.250000  0.000000  0.125000      2.000000
  0.000000  0.250000  0.125000      2.000000
 -0.250000  0.000000  0.125000      2.000000
  0.000000 -0.250000  0.125000      2.000000
  0.375000 -0.000000  0.125000      2.000000
  0.000000  0.375000  0.125000      2.000000
 -0.375000  0.000000  0.125000      2.000000
  0.000000 -0.375000  0.125000      2.000000
  0.500000  0.000000  0.125000      2.000000
  0.000000  0.500000  0.125000      2.000000
  0.125000  0.125000  0.125000      2.000000
 -0.125000  0.125000  0.125000      2.000000
 -0.125000 -0.125000  0.125000      2.000000
  0.125000 -0.125000  0.125000      2.000000
  0.250000  0.125000  0.125000      2.000000
 -0.125000  0.250000  0.125000      2.000000
 -0.250000 -0.125000  0.125000      2.000000
  0.125000 -0.250000  0.125000      2.000000
 -0.250000  0.125000 -0.125000      2.000000
  0.125000  0.250000 -0.125000      2.000000
  0.250000 -0.125000 -0.125000      2.000000
[...]
  0.500000  0.125000  0.500000      2.000000
 -0.125000  0.500000  0.500000      2.000000
  0.250000  0.250000  0.500000      2.000000
 -0.250000  0.250000  0.500000      2.000000
  0.375000  0.250000  0.500000      2.000000
 -0.250000  0.375000  0.500000      2.000000
 -0.375000  0.250000  0.500000      2.000000
  0.250000  0.375000  0.500000      2.000000
  0.500000  0.250000  0.500000      2.000000
 -0.250000  0.500000  0.500000      2.000000
  0.375000  0.375000  0.500000      2.000000
 -0.375000  0.375000  0.500000      2.000000
  0.500000  0.375000  0.500000      2.000000
 -0.375000  0.500000  0.500000      2.000000
  0.500000  0.500000  0.500000      1.000000

 Following cartesian coordinates:
            Coordinates               Weight
  0.000000  0.000000  0.000000      1.000000
  0.030465 -0.000000  0.000000      2.000000
  0.000000  0.030465  0.000000      2.000000
  0.060930 -0.000000  0.000000      2.000000
  0.000000  0.060930  0.000000      2.000000
  0.091395 -0.000000  0.000000      2.000000
  0.000000  0.091395  0.000000      2.000000
  0.121861 -0.000000  0.000000      1.000000
  0.000000  0.121861  0.000000      1.000000
  0.030465  0.030465  0.000000      2.000000
 -0.030465  0.030465  0.000000      2.000000
  0.060930  0.030465  0.000000      2.000000
 -0.030465  0.060930  0.000000      2.000000
 -0.060930  0.030465  0.000000      2.000000
  0.030465  0.060930  0.000000      2.000000
  0.091395  0.030465  0.000000      2.000000
 -0.030465  0.091395  0.000000      2.000000
 -0.091395  0.030465  0.000000      2.000000
  0.030465  0.091395  0.000000      2.000000
  0.121861  0.030465  0.000000      2.000000
 -0.030465  0.121861  0.000000      2.000000
  0.060930  0.060930  0.000000      2.000000
 -0.060930  0.060930  0.000000      2.000000
  0.091395  0.060930  0.000000      2.000000
 -0.060930  0.091395  0.000000      2.000000
 -0.091395  0.060930  0.000000      2.000000
  0.060930  0.091395  0.000000      2.000000
  0.121861  0.060930  0.000000      2.000000
 -0.060930  0.121861  0.000000      2.000000
  0.091395  0.091395  0.000000      2.000000
 -0.091395  0.091395  0.000000      2.000000
  0.121861  0.091395  0.000000      2.000000
 -0.091395  0.121861  0.000000      2.000000
  0.121861  0.121861  0.000000      1.000000
 -0.000000 -0.000000  0.035228      2.000000
  0.030465 -0.000000  0.035228      2.000000
 -0.000000  0.030465  0.035228      2.000000
 -0.030465  0.000000  0.035228      2.000000
 -0.000000 -0.030465  0.035228      2.000000
  0.060930 -0.000000  0.035228      2.000000
 -0.000000  0.060930  0.035228      2.000000
 -0.060930  0.000000  0.035228      2.000000
 -0.000000 -0.060930  0.035228      2.000000
  0.091395 -0.000000  0.035228      2.000000
 -0.000000  0.091395  0.035228      2.000000
 -0.091395  0.000000  0.035228      2.000000
 -0.000000 -0.091395  0.035228      2.000000
  0.121861 -0.000000  0.035228      2.000000
[...]
 k-point    10 :   0.1250 0.1250 0.0000  plane waves:    1424
 k-point    11 :  -0.1250 0.1250 0.0000  plane waves:    1424
 k-point    12 :   0.2500 0.1250 0.0000  plane waves:    1416
 k-point    13 :  -0.1250 0.2500 0.0000  plane waves:    1416
 k-point    14 :  -0.2500 0.1250 0.0000  plane waves:    1416
 k-point    15 :   0.1250 0.2500 0.0000  plane waves:    1416
 k-point    16 :   0.3750 0.1250 0.0000  plane waves:    1420
 k-point    17 :  -0.1250 0.3750 0.0000  plane waves:    1420
 k-point    18 :  -0.3750 0.1250 0.0000  plane waves:    1420
 k-point    19 :   0.1250 0.3750 0.0000  plane waves:    1420
 k-point    20 :   0.5000 0.1250 0.0000  plane waves:    1436
 k-point    21 :  -0.1250 0.5000 0.0000  plane waves:    1436
 k-point    22 :   0.2500 0.2500 0.0000  plane waves:    1412
 k-point    23 :  -0.2500 0.2500 0.0000  plane waves:    1412
 k-point    24 :   0.3750 0.2500 0.0000  plane waves:    1410
 k-point    25 :  -0.2500 0.3750 0.0000  plane waves:    1410
 k-point    26 :  -0.3750 0.2500 0.0000  plane waves:    1410
 k-point    27 :   0.2500 0.3750 0.0000  plane waves:    1410
 k-point    28 :   0.5000 0.2500 0.0000  plane waves:    1416
 k-point    29 :  -0.2500 0.5000 0.0000  plane waves:    1416
 k-point    30 :   0.3750 0.3750 0.0000  plane waves:    1432
 k-point    31 :  -0.3750 0.3750 0.0000  plane waves:    1432
 k-point    32 :   0.5000 0.3750 0.0000  plane waves:    1432
 k-point    33 :  -0.3750 0.5000 0.0000  plane waves:    1432
 k-point    34 :   0.5000 0.5000 0.0000  plane waves:    1488
 k-point    35 :   0.0000 0.0000 0.1250  plane waves:    1436
 k-point    36 :   0.1250 0.0000 0.1250  plane waves:    1428
 k-point    37 :   0.0000 0.1250 0.1250  plane waves:    1428
 k-point    38 :  -0.1250 0.0000 0.1250  plane waves:    1428
 k-point    39 :   0.0000-0.1250 0.1250  plane waves:    1428
 k-point    40 :   0.2500 0.0000 0.1250  plane waves:    1416
 k-point    41 :   0.0000 0.2500 0.1250  plane waves:    1416
 k-point    42 :  -0.2500 0.0000 0.1250  plane waves:    1416
 k-point    43 :   0.0000-0.2500 0.1250  plane waves:    1416
 k-point    44 :   0.3750-0.0000 0.1250  plane waves:    1434
 k-point    45 :   0.0000 0.3750 0.1250  plane waves:    1434
 k-point    46 :  -0.3750 0.0000 0.1250  plane waves:    1434
 k-point    47 :   0.0000-0.3750 0.1250  plane waves:    1434
 k-point    48 :   0.5000 0.0000 0.1250  plane waves:    1416
 k-point    49 :   0.0000 0.5000 0.1250  plane waves:    1416
 k-point    50 :   0.1250 0.1250 0.1250  plane waves:    1432
 k-point    51 :  -0.1250 0.1250 0.1250  plane waves:    1432
 k-point    52 :  -0.1250-0.1250 0.1250  plane waves:    1432
 k-point    53 :   0.1250-0.1250 0.1250  plane waves:    1432
 k-point    54 :   0.2500 0.1250 0.1250  plane waves:    1430
 k-point    55 :  -0.1250 0.2500 0.1250  plane waves:    1430
 k-point    56 :  -0.2500-0.1250 0.1250  plane waves:    1430
 k-point    57 :   0.1250-0.2500 0.1250  plane waves:    1430
 k-point    58 :  -0.2500 0.1250-0.1250  plane waves:    1430
 k-point    59 :   0.1250 0.2500-0.1250  plane waves:    1430
 k-point    60 :   0.2500-0.1250-0.1250  plane waves:    1430
[...]
 k-point   246 :   0.5000 0.1250 0.5000  plane waves:    1448
 k-point   247 :  -0.1250 0.5000 0.5000  plane waves:    1448
 k-point   248 :   0.2500 0.2500 0.5000  plane waves:    1436
 k-point   249 :  -0.2500 0.2500 0.5000  plane waves:    1436
 k-point   250 :   0.3750 0.2500 0.5000  plane waves:    1444
 k-point   251 :  -0.2500 0.3750 0.5000  plane waves:    1444
 k-point   252 :  -0.3750 0.2500 0.5000  plane waves:    1444
 k-point   253 :   0.2500 0.3750 0.5000  plane waves:    1444
 k-point   254 :   0.5000 0.2500 0.5000  plane waves:    1464
 k-point   255 :  -0.2500 0.5000 0.5000  plane waves:    1464
 k-point   256 :   0.3750 0.3750 0.5000  plane waves:    1436
 k-point   257 :  -0.3750 0.3750 0.5000  plane waves:    1436
 k-point   258 :   0.5000 0.3750 0.5000  plane waves:    1432
 k-point   259 :  -0.3750 0.5000 0.5000  plane waves:    1432
 k-point   260 :   0.5000 0.5000 0.5000  plane waves:    1456

 maximum and minimum number of plane-waves per node :      1488     1390

 maximum number of plane-waves:      1488
 maximum index in each direction:
   IXMAX=    6   IYMAX=    6   IZMAX=    5
   IXMIN=   -6   IYMIN=   -6   IZMIN=   -5

 serial   3D FFT for wavefunctions
 parallel 3D FFT for charge:
    minimum data exchange during FFTs selected (reduces bandwidth)

 Broyden mixing: mesh for mixing (old mesh)
   NGX = 11   NGY = 11   NGZ = 11
  (NGX  = 36   NGY  = 36   NGZ  = 32)
  gives a total of   1331 points

 charge density for first step will be calculated from the start-wavefunctions

 Maximum index for augmentation-charges          365 (set IRDMAX)

 initial charge from wavefunction
 First call to EWALD:  gamma=   0.453
 Maximum number of real-space cells 3x 3x 3
 Maximum number of reciprocal cells 3x 3x 3

--------------------------------------- Ionic step        1  -------------------------------------------

--------------------------------------- Iteration      1(   1)  ---------------------------------------

 eigenvalue-minimisations  : 12864
 total energy-change (2. order) :-0.8065865E+00  (-0.5098003E-06)
 number of electron      23.9999934 magnetization      -0.0000070     -0.0000069     -0.0000035
 augmentation part        9.2403539 magnetization      -0.0000043     -0.0000043     -0.0000038

 Broyden mixing:
  rms(total) = 0.20446E-03    rms(broyden)= 0.20444E-03
  rms(prec ) = 0.28359E-03
  weight for this iteration     100.00

 Free energy of the ion-electron system (eV)
  alpha Z        PSCENC =       167.67606542
  Ewald energy   TEWEN  =     -1929.00837119
  -Hartree energ DENC   =      -497.65058168
  -exchange      EXHF   =         0.00000000
  -V(xc)+E(xc)   XCENC  =        70.13356129
  PAW double counting   =      2161.30248138    -2160.05885248
  entropy T*S    EENTRO =        -0.00089198
  eigenvalues    EBANDS =      -110.14485318
  atomic energy  EATOM  =      2296.94485591
  Solvation  Ediel_sol  =         0.00000000
  free energy    TOTEN  =        -0.80658651 eV

  energy without entropy =       -0.80569453  energy(sigma->0) =       -0.80614052

--------------------------------------- Iteration      1(   2)  ---------------------------------------

 eigenvalue-minimisations  : 12768
 total energy-change (2. order) :-0.8520874E-07  (-0.2073082E-07)
 number of electron      23.9999934 magnetization      -0.0000070     -0.0000069     -0.0000035
 augmentation part        9.2403539 magnetization      -0.0000043     -0.0000043     -0.0000038

 Free energy of the ion-electron system (eV)
  alpha Z        PSCENC =       167.67606542
  Ewald energy   TEWEN  =     -1929.00837119
  -Hartree energ DENC   =      -497.65327368
  -exchange      EXHF   =         0.00000000
  -V(xc)+E(xc)   XCENC  =        70.13367731
  PAW double counting   =      2161.28483007    -2160.04103054
  entropy T*S    EENTRO =        -0.00089261
  eigenvalues    EBANDS =      -110.14244729
  atomic energy  EATOM  =      2296.94485591
  Solvation  Ediel_sol  =         0.00000000
  free energy    TOTEN  =        -0.80658660 eV

  energy without entropy =       -0.80569399  energy(sigma->0) =       -0.80614029

 average (electrostatic) potential at core
  the test charge radii are     1.2171
  (the norm of the test charge is              1.0000)
       1 -41.7498       2 -41.7498

 E-fermi :   0.9904     XC(G=0):  -9.5948     alpha+bet : -5.2334

 val. band max:        0.9376131095   @ k =   0.0000  -0.1250   0.2500
 cond. band min:       1.0020864259   @ k =   0.5000   0.1250   0.5000
 fundamental gap:      0.0644733164
 Fermi energy:         0.9904372824

 k-point     1 :       0.0000    0.0000    0.0000
  band No.  band energies     occupation
      1      -6.3591      1.00000
      2      -6.3591      1.00000
      3      -6.3075      1.00000
      4      -6.3075      1.00000
      5      -6.2939      1.00000
      6      -6.2939      1.00000
      7      -6.2759      1.00000
      8      -6.2759      1.00000
      9      -6.2087      1.00000
     10      -6.2087      1.00000
     11      -4.6341      1.00000
     12      -4.6341      1.00000
     13      -4.4103      1.00000
     14      -4.4103      1.00000
     15      -4.3805      1.00000
     16      -4.3805      1.00000
     17      -4.3495      1.00000
     18      -4.3495      1.00000
     19      -4.1944      1.00000
     20      -4.1944      1.00000
     21      -3.7207      1.00000
     22      -3.7207      1.00000
     23       2.3303      0.00000
     24       2.3303      0.00000
     25       3.3226      0.00000
     26       3.3226      0.00000
     27       4.4058      0.00000
     28       4.4058      0.00000
     29       7.0557      0.00000
     30       7.0557      0.00000
     31       9.2581      0.00000
     32       9.2581      0.00000
     33      11.5796      0.00000
     34      11.5796      0.00000
     35      11.8918      0.00000
     36      11.8918      0.00000
     37      13.5856      0.00000
     38      13.5856      0.00000
     39      15.3605      0.00000
     40      15.3605      0.00000
     41      16.4117      0.00000
     42      16.4117      0.00000
     43      16.5545      0.00000
     44      16.5545      0.00000
     45      16.9462      0.00000
     46      16.9462      0.00000
     47      16.9515      0.00000
     48      16.9515      0.00000

[...]

 k-point   260 :       0.5000    0.5000    0.5000
  band No.  band energies     occupation
      1      -6.2174      1.00000
      2      -6.2174      1.00000
      3      -6.2174      1.00000
      4      -6.2174      1.00000
      5      -6.2148      1.00000
      6      -6.2148      1.00000
      7      -6.2148      1.00000
      8      -6.2148      1.00000
      9      -4.6786      1.00000
     10      -4.6786      1.00000
     11      -4.6786      1.00000
     12      -4.6786      1.00000
     13      -4.2792      1.00000
     14      -4.2792      1.00000
     15      -4.2792      1.00000
     16      -4.2792      1.00000
     17      -4.1795      1.00000
     18      -4.1795      1.00000
     19      -4.1795      1.00000
     20      -4.1795      1.00000
     21       0.0909      1.00000
     22       0.0909      1.00000
     23       0.0909      1.00000
     24       0.0909      1.00000
     25       3.5365      0.00000
     26       3.5365      0.00000
     27       3.5365      0.00000
     28       3.5365      0.00000
     29       4.6061      0.00000
     30       4.6061      0.00000
     31       4.6061      0.00000
     32       4.6061      0.00000
     33       4.9293      0.00000
     34       4.9293      0.00000
     35       4.9293      0.00000
     36       4.9293      0.00000
     37      20.6745      0.00000
     38      20.6745      0.00000
     39      20.6745      0.00000
     40      20.6745      0.00000
     41      21.1535      0.00000
     42      21.1535      0.00000
     43      21.1535      0.00000
     44      21.1535      0.00000
     45      21.3026      0.00000
     46      21.3026      0.00000
     47      21.3026      0.00000
     48      21.3026      0.00000

 soft charge-density along one line, spin component           1
         0         1         2         3         4         5         6         7         8         9
 total charge-density along one line

[...]

 soft charge-density along one line, spin component           4
         0         1         2         3         4         5         6         7         8         9
 total charge-density along one line

------------------------ aborting loop because EDIFF is reached ----------------------------------------

  FORCE on cell =-STRESS in cart. coord.  units (eV):
  Direction    XX          YY          ZZ          XY          YZ          ZX
  Alpha Z   167.67607   167.67607   167.67607
  Ewald    -655.23760  -655.23760  -618.53477    -0.00000     0.00000     0.00000
  Hartree   158.37108   158.37108   180.91068    -0.00000    -0.00000    -0.00000
  E(xc)    -104.47693  -104.47693  -104.41526     0.00000     0.00000     0.00000
  Local     186.71758   186.71758   127.48161     0.00000     0.00000     0.00000
  n-local  -130.38344  -130.38344  -130.21622     0.00000    -0.00000    -0.00000
  augment    70.49707    70.49707    70.49666     0.00000     0.00000     0.00000
  Kinetic   306.35202   306.35202   306.34602     0.00000     0.00000     0.00000
  Fock        0.00000     0.00000     0.00000     0.00000     0.00000     0.00000
  Total      -0.48416    -0.48416    -0.25521     0.00001     0.00000     0.00000
  in kB     -12.98561   -12.98561    -6.84500     0.00014     0.00006     0.00005

 VOLUME and BASIS-vectors are now :
  energy-cutoff  :      303.17
  volume of cell :       59.74
      direct lattice vectors                 reciprocal lattice vectors
     4.103050000  0.000000000  0.000000000     0.243721134 -0.000000000  0.000000000
     0.000000000  4.103050000  0.000000000     0.000000000  0.243721134  0.000000000
     0.000000000  0.000000000  3.548310000    -0.000000000 -0.000000000  0.281824305

  length of vectors
     4.103050000  4.103050000  3.548310000     0.243721134  0.243721134  0.281824305

 FORCES acting on ions
    electron-ion (+dipol)            ewald-force                    non-local-force                 convergence-correction
   -.205E-14 -.906E-14 0.262E-15   -.675E-14 -.747E-14 0.138E-14   0.652E-23 0.550E-23 0.176E-22   -.159E-14 0.235E-13 -.444E-14
   0.214E-12 0.218E-12 0.878E-13   0.843E-14 0.784E-14 0.733E-15   0.997E-23 -.655E-23 0.114E-22   -.102E-13 0.111E-13 -.296E-14
   0.212E-12 0.209E-12 0.881E-13   0.168E-14 0.364E-15 0.211E-14   0.165E-22 -.105E-23 0.289E-22   -.117E-13 0.346E-13 -.740E-14

 POSITION                                       TOTAL-FORCE (eV/Angst)
      0.00000      0.00000      0.00000         0.000000      0.000000      0.000000
      2.05153      2.05152      1.77416        -0.000000     -0.000000     -0.000000
    total drift:                                0.000000      0.000000      0.000000

  FREE ENERGIE OF THE ION-ELECTRON SYSTEM (eV)
  free  energy   TOTEN  =        -0.80658660 eV

  energy  without entropy=       -0.80569399  energy(sigma->0) =       -0.80614029

 writing wavefunctions

 Spin-Orbit-Coupling matrix elements

 Ion:    1  E_soc:     -0.4532673
 l=   1
     0.0000000    -0.0085153    -0.0087370
    -0.0085153     0.0000000    -0.0085153
    -0.0087370    -0.0085153     0.0000000
 l=   2
     0.0000000    -0.0136097     0.0000000    -0.0136097    -0.0533095
    -0.0136097     0.0000000    -0.0400471    -0.0136346    -0.0133043
     0.0000000    -0.0400471     0.0000000    -0.0400471     0.0000000
    -0.0136097    -0.0136346    -0.0400471     0.0000000    -0.0133043
    -0.0533095    -0.0133043     0.0000000    -0.0133043     0.0000000
 l=   3
     0.0000000     0.0000000     0.0000000     0.0000000     0.0000000     0.0000000     0.0000000
     0.0000000     0.0000000     0.0000000     0.0000000     0.0000000     0.0000000     0.0000000
     0.0000000     0.0000000     0.0000000     0.0000000     0.0000000     0.0000000     0.0000000
     0.0000000     0.0000000     0.0000000     0.0000000     0.0000000     0.0000000     0.0000000
     0.0000000     0.0000000     0.0000000     0.0000000     0.0000000     0.0000000     0.0000000
     0.0000000     0.0000000     0.0000000     0.0000000     0.0000000     0.0000000     0.0000000
     0.0000000     0.0000000     0.0000000     0.0000000     0.0000000     0.0000000     0.0000000

 Ion:    2  E_soc:     -0.4532673
 l=   1
     0.0000000    -0.0085153    -0.0087370
    -0.0085153     0.0000000    -0.0085153
    -0.0087370    -0.0085153     0.0000000
 l=   2
     0.0000000    -0.0136097     0.0000000    -0.0136097    -0.0533095
    -0.0136097     0.0000000    -0.0400471    -0.0136346    -0.0133043
     0.0000000    -0.0400471     0.0000000    -0.0400471     0.0000000
    -0.0136097    -0.0136346    -0.0400471     0.0000000    -0.0133043
    -0.0533095    -0.0133043     0.0000000    -0.0133043     0.0000000
 l=   3
     0.0000000     0.0000000     0.0000000     0.0000000     0.0000000     0.0000000     0.0000000
     0.0000000     0.0000000     0.0000000     0.0000000     0.0000000     0.0000000     0.0000000
     0.0000000     0.0000000     0.0000000     0.0000000     0.0000000     0.0000000     0.0000000
     0.0000000     0.0000000     0.0000000     0.0000000     0.0000000     0.0000000     0.0000000
     0.0000000     0.0000000     0.0000000     0.0000000     0.0000000     0.0000000     0.0000000
     0.0000000     0.0000000     0.0000000     0.0000000     0.0000000     0.0000000     0.0000000
     0.0000000     0.0000000     0.0000000     0.0000000     0.0000000     0.0000000     0.0000000