 vasp.6.4.3 19Mar24 (build Jun 26 2024 13:02:28) complex

 executed on             LinuxIFC date 2025.08.08  18:32:30

 INCAR:
   ENCUT = 324.7972
   IBRION = -1
   ISMEAR = 0
   ISYM = 2
   LCHARG = True
   LWAVE = True
   SIGMA = 0.05
   SYSTEM = Ag

 POTCAR:  PAW_PBE Ag 02Apr2005
|           W    W    AA    RRRRR   N    N  II  N    N   GGGG   !!!           |
|           W    W   A  A   R    R  NN   N  II  NN   N  G    G  !!!           |
|           W    W  A    A  R    R  N N  N  II  N N  N  G       !!!           |
|           W WW W  AAAAAA  RRRRR   N  N N  II  N  N N  G  GGG   !            |
|           WW  WW  A    A  R   R   N   NN  II  N   NN  G    G                |
|           W    W  A    A  R    R  N    N  II  N    N   GGGG   !!!           |
|     For optimal performance we recommend to set                             |
|       NCORE = 2 up to number-of-cores-per-socket                            |
|     This setting can greatly improve the performance of VASP for DFT.       |
|     The default, NCORE=1 might be grossly inefficient on modern             |
|     multi-core architectures or massively parallel machines. Do your        |
|     Unfortunately you need to use the default for GW and RPA                |
|     calculations (for HF NCORE is supported but not extensively tested      |
|     yet).                                                                   |

 POTCAR:  PAW_PBE Ag 02Apr2005
   VRHFIN =Ag : s1 d10

   TITEL  = PAW_PBE Ag 02Apr2005
   POMASS =  107.868; ZVAL   =   11.000    mass and valenz
   ENMAX  =  249.844; ENMIN  =  187.383 eV

PAW_PBE Ag 02Apr2005                    :

 POSCAR: Ag4
  positions in direct lattice

 exchange-correlation table for PE
   RHO(1)=    0.500       N(1)  =     2000
   RHO(2)=  100.500       N(2)  =     4000

 ion  position               nearest neighbor table
   1  0.000  0.000  0.000-   2 2.94   3 2.94   2 2.94   3 2.94   2 2.94   4 2.94   2 2.94   3 2.94
                             4 2.94   3 2.94   4 2.94   4 2.94
   2  0.000  0.500  0.500-   1 2.94   4 2.94   1 2.94   4 2.94   1 2.94   3 2.94   1 2.94   3 2.94
                             4 2.94   4 2.94   3 2.94   3 2.94
   3  0.500  0.000  0.500-   1 2.94   4 2.94   1 2.94   4 2.94   2 2.94   4 2.94   4 2.94   1 2.94
                             2 2.94   1 2.94   2 2.94   2 2.94
   4  0.500  0.500  0.000-   2 2.94   3 2.94   2 2.94   3 2.94   1 2.94   3 2.94   3 2.94   1 2.94
                             2 2.94   2 2.94   1 2.94   1 2.94

  LATTYP: Found a simple cubic cell.
 ALAT       =     4.1642400000

  Lattice vectors:

 A1 = (   4.1642400000,   0.0000000000,   0.0000000000)
 A2 = (   0.0000000000,   4.1642400000,   0.0000000000)
 A3 = (   0.0000000000,   0.0000000000,   4.1642400000)

Analysis of symmetry for initial positions (statically):
 Subroutine PRICEL returns following result:

  LATTYP: Found a face centered cubic cell.
 ALAT       =     4.1642400000

[...]

   4 primitive cells build up your supercell.

 Routine SETGRP: Setting up the symmetry group for a
 simple cubic supercell.

 Subroutine GETGRP returns: Found 48 space group operations
 (whereof 48 operations were pure point group operations)
 out of a pool of 48 trial point group operations.

The static configuration has the point symmetry O_h .

Analysis of symmetry for dynamics (positions and initial velocities):
 Subroutine PRICEL returns following result:

  LATTYP: Found a face centered cubic cell.
 ALAT       =     4.1642400000

  Lattice vectors:

 A1 = (   2.0821200000,  -2.0821200000,   0.0000000000)
 A2 = (   2.0821200000,   0.0000000000,   2.0821200000)
 A3 = (   0.0000000000,  -2.0821200000,   2.0821200000)

   4 primitive cells build up your supercell.

 Routine SETGRP: Setting up the symmetry group for a
 simple cubic supercell.

 Subroutine GETGRP returns: Found 48 space group operations
 (whereof 48 operations were pure point group operations)
 out of a pool of 48 trial point group operations.

The dynamic configuration has the point symmetry O_h .

 Subroutine INISYM returns: Found 48 space group operations
 (whereof 48 operations are pure point group operations),
 and found     4 'primitive' translations

                                     Primitive cell

  volume of cell :      18.0529

  direct lattice vectors                    reciprocal lattice vectors
     2.082120000 -2.082120000  0.000000000     0.240139857 -0.240139857 -0.240139857
     2.082120000  0.000000000  2.082120000     0.240139857  0.240139857  0.240139857
     0.000000000 -2.082120000  2.082120000    -0.240139857 -0.240139857  0.240139857

  length of vectors
     2.944562342  2.944562342  2.944562342     0.415934434  0.415934434  0.415934434

  position of ions in fractional coordinates (direct lattice)
     0.000000000  0.000000000  0.000000000

  ion indices of the primitive-cell ions
   primitive index   ion index
                 1           1

 KPOINTS: Automatic kpoint scheme

Automatic generation of k-mesh.
 Grid dimensions read from file:
 generate k-points for:    8    8    8

 Generating k-lattice:

  Cartesian coordinates                     Fractional coordinates (reciprocal lattice)
     0.030017482 -0.000000000  0.000000000     0.125000000 -0.000000000  0.000000000
     0.000000000  0.030017482  0.000000000     0.000000000  0.125000000  0.000000000
    -0.000000000 -0.000000000  0.030017482    -0.000000000 -0.000000000  0.125000000

  Length of vectors
     0.030017482  0.030017482  0.030017482

  Shift w.r.t. Gamma in fractional coordinates (k-lattice)
     0.000000000  0.000000000  0.000000000

 Subroutine IBZKPT returns following result:

 Found     35 irreducible k-points:

 Following reciprocal coordinates:
            Coordinates               Weight
  0.000000  0.000000  0.000000      1.000000
  0.125000  0.000000  0.000000      6.000000
  0.250000  0.000000  0.000000      6.000000
  0.375000  0.000000  0.000000      6.000000
  0.500000  0.000000  0.000000      3.000000
  0.125000  0.125000  0.000000     12.000000
  0.250000  0.125000  0.000000     24.000000
  0.375000  0.125000  0.000000     24.000000
  0.500000  0.125000  0.000000     12.000000
  0.250000  0.250000  0.000000     12.000000
  0.375000  0.250000  0.000000     24.000000
  0.500000  0.250000  0.000000     12.000000
  0.375000  0.375000  0.000000     12.000000
  0.500000  0.375000  0.000000     12.000000
  0.500000  0.500000  0.000000      3.000000
  0.125000  0.125000  0.125000      8.000000
  0.250000  0.125000  0.125000     24.000000
  0.375000  0.125000  0.125000     24.000000
  0.500000  0.125000  0.125000     12.000000
  0.250000  0.250000  0.125000     24.000000
  0.375000  0.250000  0.125000     48.000000
  0.500000  0.250000  0.125000     24.000000
  0.375000  0.375000  0.125000     24.000000
  0.500000  0.375000  0.125000     24.000000
  0.500000  0.500000  0.125000      6.000000
  0.250000  0.250000  0.250000      8.000000
  0.375000  0.250000  0.250000     24.000000
  0.500000  0.250000  0.250000     12.000000
  0.375000  0.375000  0.250000     24.000000
  0.500000  0.375000  0.250000     24.000000
  0.500000  0.500000  0.250000      6.000000
  0.375000  0.375000  0.375000      8.000000
  0.500000  0.375000  0.375000     12.000000
  0.500000  0.500000  0.375000      6.000000
  0.500000  0.500000  0.500000      1.000000

 Following cartesian coordinates:
            Coordinates               Weight
  0.000000  0.000000  0.000000      1.000000
  0.030017 -0.000000  0.000000      6.000000
  0.060035 -0.000000  0.000000      6.000000
  0.090052 -0.000000  0.000000      6.000000
  0.120070 -0.000000  0.000000      3.000000
  0.030017  0.030017  0.000000     12.000000
  0.060035  0.030017  0.000000     24.000000
  0.090052  0.030017  0.000000     24.000000
  0.120070  0.030017  0.000000     12.000000
  0.060035  0.060035  0.000000     12.000000
  0.090052  0.060035  0.000000     24.000000
  0.120070  0.060035  0.000000     12.000000
  0.090052  0.090052  0.000000     12.000000
  0.120070  0.090052  0.000000     12.000000
  0.120070  0.120070  0.000000      3.000000
  0.030017  0.030017  0.030017      8.000000
  0.060035  0.030017  0.030017     24.000000
  0.090052  0.030017  0.030017     24.000000
  0.120070  0.030017  0.030017     12.000000
  0.060035  0.060035  0.030017     24.000000
  0.090052  0.060035  0.030017     48.000000
  0.120070  0.060035  0.030017     24.000000
  0.090052  0.090052  0.030017     24.000000
  0.120070  0.090052  0.030017     24.000000
  0.120070  0.120070  0.030017      6.000000
  0.060035  0.060035  0.060035      8.000000
  0.090052  0.060035  0.060035     24.000000
  0.120070  0.060035  0.060035     12.000000
  0.090052  0.090052  0.060035     24.000000
  0.120070  0.090052  0.060035     24.000000
  0.120070  0.120070  0.060035      6.000000
  0.090052  0.090052  0.090052      8.000000
  0.120070  0.090052  0.090052     12.000000
  0.120070  0.120070  0.090052      6.000000
  0.120070  0.120070  0.120070      1.000000

 Subroutine IBZKPT_HF returns following result:

 Found    512 k-points in 1st BZ
 the following    512 k-points will be used (e.g. in the exchange kernel)
 Following reciprocal coordinates:   # in IRBZ
  0.000000  0.000000  0.000000    0.00195312   1 t-inv F
  0.125000  0.000000  0.000000    0.00195312   2 t-inv F
  0.250000  0.000000  0.000000    0.00195312   3 t-inv F
  0.375000  0.000000  0.000000    0.00195312   4 t-inv F
  0.500000  0.000000  0.000000    0.00195312   5 t-inv F
  0.125000  0.125000  0.000000    0.00195312   6 t-inv F
  0.250000  0.125000  0.000000    0.00195312   7 t-inv F
  0.375000  0.125000  0.000000    0.00195312   8 t-inv F
  0.500000  0.125000  0.000000    0.00195312   9 t-inv F
  0.250000  0.250000  0.000000    0.00195312  10 t-inv F
  0.375000  0.250000  0.000000    0.00195312  11 t-inv F
  0.500000  0.250000  0.000000    0.00195312  12 t-inv F
  0.375000  0.375000  0.000000    0.00195312  13 t-inv F
  0.500000  0.375000  0.000000    0.00195312  14 t-inv F
  0.500000  0.500000  0.000000    0.00195312  15 t-inv F
  0.125000  0.125000  0.125000    0.00195312  16 t-inv F
  0.250000  0.125000  0.125000    0.00195312  17 t-inv F
  0.375000  0.125000  0.125000    0.00195312  18 t-inv F
  0.500000  0.125000  0.125000    0.00195312  19 t-inv F
  0.250000  0.250000  0.125000    0.00195312  20 t-inv F
  0.375000  0.250000  0.125000    0.00195312  21 t-inv F
  0.500000  0.250000  0.125000    0.00195312  22 t-inv F
  0.375000  0.375000  0.125000    0.00195312  23 t-inv F
  0.500000  0.375000  0.125000    0.00195312  24 t-inv F
  0.500000  0.500000  0.125000    0.00195312  25 t-inv F
  0.250000  0.250000  0.250000    0.00195312  26 t-inv F
  0.375000  0.250000  0.250000    0.00195312  27 t-inv F
  0.500000  0.250000  0.250000    0.00195312  28 t-inv F
  0.375000  0.375000  0.250000    0.00195312  29 t-inv F
  0.500000  0.375000  0.250000    0.00195312  30 t-inv F
  0.500000  0.500000  0.250000    0.00195312  31 t-inv F
  0.375000  0.375000  0.375000    0.00195312  32 t-inv F
  0.500000  0.375000  0.375000    0.00195312  33 t-inv F
  0.500000  0.500000  0.375000    0.00195312  34 t-inv F
  0.500000  0.500000  0.500000    0.00195312  35 t-inv F
[...]
     4.164240000  0.000000000  0.000000000     0.240139857 -0.000000000  0.000000000
     0.000000000  4.164240000  0.000000000     0.000000000  0.240139857  0.000000000
     0.000000000  0.000000000  4.164240000    -0.000000000 -0.000000000  0.240139857

  length of vectors

 k-points in units of 2pi/SCALE and weight: Automatic kpoint scheme
   0.00000000  0.00000000  0.00000000       0.002
   0.03001748 -0.00000000  0.00000000       0.012
   0.06003496 -0.00000000  0.00000000       0.012
   0.09005245 -0.00000000  0.00000000       0.012
   0.12006993 -0.00000000  0.00000000       0.006
   0.03001748  0.03001748  0.00000000       0.023
   0.06003496  0.03001748  0.00000000       0.047
   0.09005245  0.03001748  0.00000000       0.047
   0.12006993  0.03001748  0.00000000       0.023
   0.06003496  0.06003496  0.00000000       0.023
   0.09005245  0.06003496  0.00000000       0.047
   0.12006993  0.06003496  0.00000000       0.023
   0.09005245  0.09005245  0.00000000       0.023
   0.12006993  0.09005245  0.00000000       0.023
   0.12006993  0.12006993  0.00000000       0.006
   0.03001748  0.03001748  0.03001748       0.016
   0.06003496  0.03001748  0.03001748       0.047
   0.09005245  0.03001748  0.03001748       0.047
   0.12006993  0.03001748  0.03001748       0.023
   0.06003496  0.06003496  0.03001748       0.047
   0.09005245  0.06003496  0.03001748       0.094
   0.12006993  0.06003496  0.03001748       0.047
   0.09005245  0.09005245  0.03001748       0.047
   0.12006993  0.09005245  0.03001748       0.047
   0.12006993  0.12006993  0.03001748       0.012
   0.06003496  0.06003496  0.06003496       0.016
   0.09005245  0.06003496  0.06003496       0.047
   0.12006993  0.06003496  0.06003496       0.023
   0.09005245  0.09005245  0.06003496       0.047
   0.12006993  0.09005245  0.06003496       0.047
   0.12006993  0.12006993  0.06003496       0.012
   0.09005245  0.09005245  0.09005245       0.016
   0.12006993  0.09005245  0.09005245       0.023
   0.12006993  0.12006993  0.09005245       0.012
   0.12006993  0.12006993  0.12006993       0.002

 k-points in reciprocal lattice and weights: Automatic kpoint scheme
   0.00000000  0.00000000  0.00000000       0.002
   0.12500000  0.00000000  0.00000000       0.012
   0.25000000  0.00000000  0.00000000       0.012
   0.37500000  0.00000000  0.00000000       0.012
   0.50000000  0.00000000  0.00000000       0.006
   0.12500000  0.12500000  0.00000000       0.023
   0.25000000  0.12500000  0.00000000       0.047
   0.37500000  0.12500000  0.00000000       0.047
   0.50000000  0.12500000  0.00000000       0.023
   0.25000000  0.25000000  0.00000000       0.023
   0.37500000  0.25000000  0.00000000       0.047
   0.50000000  0.25000000  0.00000000       0.023
   0.37500000  0.37500000  0.00000000       0.023
   0.50000000  0.37500000  0.00000000       0.023
   0.50000000  0.50000000  0.00000000       0.006
   0.12500000  0.12500000  0.12500000       0.016
   0.25000000  0.12500000  0.12500000       0.047
   0.37500000  0.12500000  0.12500000       0.047
   0.50000000  0.12500000  0.12500000       0.023
   0.25000000  0.25000000  0.12500000       0.047
   0.37500000  0.25000000  0.12500000       0.094
   0.50000000  0.25000000  0.12500000       0.047
   0.37500000  0.37500000  0.12500000       0.047
   0.50000000  0.37500000  0.12500000       0.047
   0.50000000  0.50000000  0.12500000       0.012
   0.25000000  0.25000000  0.25000000       0.016
   0.37500000  0.25000000  0.25000000       0.047
   0.50000000  0.25000000  0.25000000       0.023
   0.37500000  0.37500000  0.25000000       0.047
   0.50000000  0.37500000  0.25000000       0.047
   0.50000000  0.50000000  0.25000000       0.012
   0.37500000  0.37500000  0.37500000       0.016
   0.50000000  0.37500000  0.37500000       0.023
   0.50000000  0.50000000  0.37500000       0.012
   0.50000000  0.50000000  0.50000000       0.002

 position of ions in fractional coordinates (direct lattice)
   0.00000000  0.00000000  0.00000000
   0.00000000  0.50000000  0.50000000
   0.50000000  0.00000000  0.50000000
   0.50000000  0.50000000  0.00000000

 position of ions in cartesian coordinates  (Angst):
   0.00000000  0.00000000  0.00000000
   0.00000000  2.08212000  2.08212000
   2.08212000  0.00000000  2.08212000
   2.08212000  2.08212000  0.00000000

 k-point     1 :   0.0000 0.0000 0.0000  plane waves:     949
 k-point     2 :   0.1250 0.0000 0.0000  plane waves:     964
 k-point     3 :   0.2500 0.0000 0.0000  plane waves:     956
 k-point     4 :   0.3750 0.0000 0.0000  plane waves:     968
 k-point     5 :   0.5000 0.0000 0.0000  plane waves:     972
 k-point     6 :   0.1250 0.1250 0.0000  plane waves:     957
 k-point     7 :   0.2500 0.1250 0.0000  plane waves:     954
 k-point     8 :   0.3750 0.1250 0.0000  plane waves:     964
 k-point     9 :   0.5000 0.1250 0.0000  plane waves:     950
 k-point    10 :   0.2500 0.2500 0.0000  plane waves:     959
 k-point    11 :   0.3750 0.2500 0.0000  plane waves:     954
 k-point    12 :   0.5000 0.2500 0.0000  plane waves:     956
 k-point    13 :   0.3750 0.3750 0.0000  plane waves:     952
 k-point    14 :   0.5000 0.3750 0.0000  plane waves:     962
 k-point    15 :   0.5000 0.5000 0.0000  plane waves:     952
 k-point    16 :   0.1250 0.1250 0.1250  plane waves:     958
 k-point    17 :   0.2500 0.1250 0.1250  plane waves:     954
 k-point    18 :   0.3750 0.1250 0.1250  plane waves:     954
 k-point    19 :   0.5000 0.1250 0.1250  plane waves:     954
 k-point    20 :   0.2500 0.2500 0.1250  plane waves:     961
 k-point    21 :   0.3750 0.2500 0.1250  plane waves:     954
 k-point    22 :   0.5000 0.2500 0.1250  plane waves:     954
 k-point    23 :   0.3750 0.3750 0.1250  plane waves:     963
 k-point    24 :   0.5000 0.3750 0.1250  plane waves:     972
 k-point    25 :   0.5000 0.5000 0.1250  plane waves:     968
 k-point    26 :   0.2500 0.2500 0.2500  plane waves:     958
 k-point    27 :   0.3750 0.2500 0.2500  plane waves:     967
 k-point    28 :   0.5000 0.2500 0.2500  plane waves:     964
 k-point    29 :   0.3750 0.3750 0.2500  plane waves:     968
 k-point    30 :   0.5000 0.3750 0.2500  plane waves:     964
 k-point    31 :   0.5000 0.5000 0.2500  plane waves:     968
 k-point    32 :   0.3750 0.3750 0.3750  plane waves:     970
 k-point    33 :   0.5000 0.3750 0.3750  plane waves:     966
 k-point    34 :   0.5000 0.5000 0.3750  plane waves:     964
 k-point    35 :   0.5000 0.5000 0.5000  plane waves:     968

 maximum and minimum number of plane-waves per node :       972      949

 maximum number of plane-waves:       972
 maximum index in each direction:
   IXMAX=    6   IYMAX=    6   IZMAX=    6
   IXMIN=   -6   IYMIN=   -6   IZMIN=   -6

 serial   3D FFT for wavefunctions
 parallel 3D FFT for charge:
    minimum data exchange during FFTs selected (reduces bandwidth)

 Broyden mixing: mesh for mixing (old mesh)
   NGX = 13   NGY = 13   NGZ = 13
  (NGX  = 36   NGY  = 36   NGZ  = 36)
  gives a total of   2197 points

 charge density for first step will be calculated from the start-wavefunctions

 Maximum index for augmentation-charges          293 (set IRDMAX)

 initial charge from wavefunction
 First call to EWALD:  gamma=   0.426
 Maximum number of real-space cells 3x 3x 3
 Maximum number of reciprocal cells 3x 3x 3

--------------------------------------- Ionic step        1  -------------------------------------------

--------------------------------------- Iteration      1(   1)  ---------------------------------------

 eigenvalue-minimisations  :  2064
 total energy-change (2. order) :-0.1090050E+02  (-0.3268149E-05)
 number of electron      43.9999123 magnetization
 augmentation part       21.0320550 magnetization

 Broyden mixing:
  rms(total) = 0.10095E-02    rms(broyden)= 0.10095E-02
  rms(prec ) = 0.17490E-02
  weight for this iteration     100.00

 Free energy of the ion-electron system (eV)
  alpha Z        PSCENC =       188.46335104
  Ewald energy   TEWEN  =     -3836.73644632
  -Hartree energ DENC   =      -796.48919332
  -exchange      EXHF   =         0.00000000
  -V(xc)+E(xc)   XCENC  =       -44.05609746
  PAW double counting   =      4394.99367519    -4220.02957447
  entropy T*S    EENTRO =        -0.00264103
  eigenvalues    EBANDS =       154.05511587
  atomic energy  EATOM  =      4148.90130626
  Solvation  Ediel_sol  =         0.00000000
  free energy    TOTEN  =       -10.90050424 eV

  energy without entropy =      -10.89786321  energy(sigma->0) =      -10.89918373

--------------------------------------- Iteration      1(   2)  ---------------------------------------

 eigenvalue-minimisations  :  1824
 total energy-change (2. order) : 0.6431683E-06  (-0.7603983E-06)
 number of electron      43.9999123 magnetization
 augmentation part       21.0320550 magnetization

 Free energy of the ion-electron system (eV)
  alpha Z        PSCENC =       188.46335104
  Ewald energy   TEWEN  =     -3836.73644632
  -Hartree energ DENC   =      -796.53009814
  -exchange      EXHF   =         0.00000000
  -V(xc)+E(xc)   XCENC  =       -44.05468468
  PAW double counting   =      4395.03839090    -4220.07386865
  entropy T*S    EENTRO =        -0.00264103
  eigenvalues    EBANDS =       154.09418702
  atomic energy  EATOM  =      4148.90130626
  Solvation  Ediel_sol  =         0.00000000
  free energy    TOTEN  =       -10.90050360 eV

  energy without entropy =      -10.89786257  energy(sigma->0) =      -10.89918308

 average (electrostatic) potential at core
  the test charge radii are     1.1249
  (the norm of the test charge is              1.0000)
       1 -71.3860       2 -71.3860       3 -71.3860       4 -71.3860

 E-fermi :   7.6164     XC(G=0): -11.8714     alpha+bet :-12.7146

 val. band max:        7.4170055851   @ k =   0.5000   0.5000   0.5000
 cond. band min:       7.6182432238   @ k =   0.3750   0.3750   0.2500
 fundamental gap:      0.2012376387
 Fermi energy:         7.6163960778

 k-point     1 :       0.0000    0.0000    0.0000
  band No.  band energies     occupation
      1       0.3025      2.00000
      2       1.5864      2.00000
      3       1.5864      2.00000
      4       1.5864      2.00000
      5       1.7064      2.00000
      6       1.7064      2.00000
      7       1.7064      2.00000
      8       3.0600      2.00000
      9       3.0600      2.00000
     10       3.0600      2.00000
     11       3.9958      2.00000
     12       3.9958      2.00000
     13       4.6863      2.00000
     14       4.6863      2.00000
     15       4.6863      2.00000
     16       4.9036      2.00000
     17       4.9036      2.00000
     18       4.9036      2.00000
     19       4.9036      2.00000
     20       4.9036      2.00000
     21       4.9036      2.00000
     22       9.3209      0.00000
     23       9.3209      0.00000
     24       9.3209      0.00000
     25      13.9688      0.00000
     26      13.9688      0.00000
     27      13.9688      0.00000
     28      18.0366      0.00000
     29      18.0366      0.00000
     30      18.0366      0.00000
     31      18.0366      0.00000
     32      18.0366      0.00000
     33      18.0366      0.00000
     34      23.5537      0.00000
     35      24.1827      0.00000
     36      24.1827      0.00000
     37      24.1827      0.00000
     38      24.1863      0.00000
     39      24.1863      0.00000
     40      24.1863      0.00000
     41      26.7906      0.00000
     42      26.7906      0.00000
     43      26.7906      0.00000
     44      31.4652      0.00000
     45      32.2636      0.00000
     46      32.2636      0.00000
     47      32.2636      0.00000
     48      35.9781      0.00000

[...]

 k-point    35 :       0.5000    0.5000    0.5000
  band No.  band energies     occupation
      1       1.6154      2.00000
      2       1.6154      2.00000
      3       1.6154      2.00000
      4       1.6154      2.00000
      5       3.0431      2.00000
      6       3.0431      2.00000
      7       3.0431      2.00000
      8       3.0431      2.00000
      9       3.0431      2.00000
     10       3.0431      2.00000
     11       3.0431      2.00000
     12       3.0431      2.00000
     13       4.7162      2.00000
     14       4.7162      2.00000
     15       4.7162      2.00000
     16       4.7162      2.00000
     17       4.7162      2.00000
     18       4.7162      2.00000
     19       4.7162      2.00000
     20       4.7162      2.00000
     21       7.4170      2.00000
     22       7.4170      2.00000
     23       7.4170      2.00000
     24       7.4170      2.00000
     25      10.9586      0.00000
     26      10.9586      0.00000
     27      10.9586      0.00000
     28      10.9586      0.00000
     29      22.7800      0.00000
     30      22.7800      0.00000
     31      22.7800      0.00000
     32      22.7800      0.00000
     33      24.9406      0.00000
     34      24.9406      0.00000
     35      24.9406      0.00000
     36      24.9406      0.00000
     37      24.9406      0.00000
     38      24.9406      0.00000
     39      24.9406      0.00000
     40      24.9406      0.00000
     41      29.7217      0.00000
     42      29.7217      0.00000
     43      29.7217      0.00000
     44      29.7217      0.00000
     45      29.7217      0.00000
     46      29.7217      0.00000
     47      29.7217      0.00000
     48      29.7217      0.00000

 soft charge-density along one line, spin component           1
         0         1         2         3         4         5         6         7         8         9
 total charge-density along one line

------------------------ aborting loop because EDIFF is reached ----------------------------------------

  FORCE on cell =-STRESS in cart. coord.  units (eV):
  Direction    XX          YY          ZZ          XY          YZ          ZX
  Alpha Z   188.46335   188.46335   188.46335
  Ewald   -1278.91271 -1278.91271 -1278.91271    -0.00000     0.00000     0.00000
  Hartree   265.51320   265.51320   265.51320    -0.00000    -0.00000    -0.00000
  E(xc)    -232.22521  -232.22521  -232.22521     0.00000     0.00000     0.00000
  Local     178.66109   178.66109   178.66109     0.00000     0.00000     0.00000
  n-local   -25.94674   -39.34650   -42.73874     1.09030     3.86618     1.30267
  augment   368.30139   368.30139   368.30139     0.00000     0.00000    -0.00000
  Kinetic   552.67536   544.45268   539.14479    -2.53543     0.26262    -0.95710
  Fock        0.00000     0.00000     0.00000     0.00000     0.00000     0.00000
  Total      -0.78527    -0.78527    -0.78527    -0.00000     0.00000    -0.00000
  in kB     -17.42308   -17.42308   -17.42308    -0.00000     0.00000    -0.00000

 VOLUME and BASIS-vectors are now :
  energy-cutoff  :      324.80
  volume of cell :       72.21
      direct lattice vectors                 reciprocal lattice vectors
     4.164240000  0.000000000  0.000000000     0.240139857 -0.000000000  0.000000000
     0.000000000  4.164240000  0.000000000     0.000000000  0.240139857  0.000000000
     0.000000000  0.000000000  4.164240000    -0.000000000 -0.000000000  0.240139857

  length of vectors
     4.164240000  4.164240000  4.164240000     0.240139857  0.240139857  0.240139857

 FORCES acting on ions
    electron-ion (+dipol)            ewald-force                    non-local-force                 convergence-correction
   -.333E-13 -.239E-13 -.405E-13   0.309E-14 -.453E-14 0.182E-14   -.296E-24 -.796E-25 -.691E-24   0.370E-14 0.878E-14 0.711E-14
   -.296E-13 0.362E-12 0.389E-12   0.360E-14 0.641E-14 0.506E-14   -.775E-25 0.363E-24 -.242E-24   -.440E-14 0.421E-14 0.117E-13
   0.397E-12 -.226E-13 -.628E-12   -.532E-14 -.551E-14 0.507E-14   0.226E-25 -.111E-24 0.120E-23   -.119E-14 0.175E-13 0.156E-13
   0.394E-12 0.360E-12 0.599E-12   -.480E-14 0.543E-14 -.866E-14   0.198E-24 0.293E-24 0.803E-24   -.685E-16 0.138E-13 0.677E-15
   0.728E-12 0.676E-12 0.319E-12   -.342E-14 0.180E-14 0.329E-14   -.152E-24 0.466E-24 0.107E-23   -.196E-14 0.443E-13 0.351E-13

 POSITION                                       TOTAL-FORCE (eV/Angst)
      0.00000      0.00000      0.00000        -0.000000     -0.000000      0.000000
      0.00000      2.08212      2.08212        -0.000000      0.000000     -0.000000
      2.08212      0.00000      2.08212         0.000000      0.000000      0.000000
      2.08212      2.08212      0.00000        -0.000000     -0.000000      0.000000
    total drift:                                0.000000      0.000000      0.000000

  FREE ENERGIE OF THE ION-ELECTRON SYSTEM (eV)
  free  energy   TOTEN  =       -10.90050360 eV

  energy  without entropy=      -10.89786257  energy(sigma->0) =      -10.89918308

 writing wavefunctions