 vasp.6.4.3 19Mar24 (build Jun 26 2024 13:02:28) complex

 executed on             LinuxIFC date 2025.08.08  18:25:40

 INCAR:
   ENCUT = 315.4788
   IBRION = -1
   ISMEAR = 0
   ISYM = 2
   LCHARG = True
   LWAVE = True
   SIGMA = 0.05
   SYSTEM = Mo

 POTCAR:  PAW_PBE Mo_sv 02Feb2006
|           W    W    AA    RRRRR   N    N  II  N    N   GGGG   !!!           |
|           W    W   A  A   R    R  NN   N  II  NN   N  G    G  !!!           |
|           W    W  A    A  R    R  N N  N  II  N N  N  G       !!!           |
|           W WW W  AAAAAA  RRRRR   N  N N  II  N  N N  G  GGG   !            |
|           WW  WW  A    A  R   R   N   NN  II  N   NN  G    G                |
|           W    W  A    A  R    R  N    N  II  N    N   GGGG   !!!           |
|     For optimal performance we recommend to set                             |
|       NCORE = 2 up to number-of-cores-per-socket                            |
|     This setting can greatly improve the performance of VASP for DFT.       |
|     The default, NCORE=1 might be grossly inefficient on modern             |
|     multi-core architectures or massively parallel machines. Do your        |
|     Unfortunately you need to use the default for GW and RPA                |
|     calculations (for HF NCORE is supported but not extensively tested      |
|     yet).                                                                   |

 POTCAR:  PAW_PBE Mo_sv 02Feb2006
   VRHFIN =Mo: 4p5s4d

   TITEL  = PAW_PBE Mo_sv 02Feb2006
   POMASS =   95.940; ZVAL   =   14.000    mass and valenz
   ENMAX  =  242.676; ENMIN  =  182.007 eV

PAW_PBE Mo_sv 02Feb2006                 :

 POSCAR: Mo2
  positions in direct lattice

 exchange-correlation table for PE
   RHO(1)=    0.500       N(1)  =     2000
   RHO(2)=  100.500       N(2)  =     4000

 ion  position               nearest neighbor table
   1  0.000  0.000  0.000-   2 2.74   2 2.74   2 2.74   2 2.74   2 2.74   2 2.74   2 2.74   2 2.74

   2  0.500  0.500  0.500-   1 2.74   1 2.74   1 2.74   1 2.74   1 2.74   1 2.74   1 2.74   1 2.74

  LATTYP: Found a simple cubic cell.
 ALAT       =     3.1693000000

  Lattice vectors:

 A1 = (   3.1693000000,   0.0000000000,   0.0000000000)
 A2 = (   0.0000000000,   3.1693000000,   0.0000000000)
 A3 = (   0.0000000000,   0.0000000000,   3.1693000000)

Analysis of symmetry for initial positions (statically):
 Subroutine PRICEL returns following result:

  LATTYP: Found a body centered cubic cell.
 ALAT       =     3.1693000000

[...]

   2 primitive cells build up your supercell.

 Routine SETGRP: Setting up the symmetry group for a
 simple cubic supercell.

 Subroutine GETGRP returns: Found 48 space group operations
 (whereof 48 operations were pure point group operations)
 out of a pool of 48 trial point group operations.

The static configuration has the point symmetry O_h .

Analysis of symmetry for dynamics (positions and initial velocities):
 Subroutine PRICEL returns following result:

  LATTYP: Found a body centered cubic cell.
 ALAT       =     3.1693000000

  Lattice vectors:

 A1 = (   1.5846500000,   1.5846500000,  -1.5846500000)
 A2 = (  -1.5846500000,   1.5846500000,   1.5846500000)
 A3 = (   1.5846500000,  -1.5846500000,   1.5846500000)

   2 primitive cells build up your supercell.

 Routine SETGRP: Setting up the symmetry group for a
 simple cubic supercell.

 Subroutine GETGRP returns: Found 48 space group operations
 (whereof 48 operations were pure point group operations)
 out of a pool of 48 trial point group operations.

The dynamic configuration has the point symmetry O_h .

 Subroutine INISYM returns: Found 48 space group operations
 (whereof 48 operations are pure point group operations),
 and found     2 'primitive' translations

                                     Primitive cell

  volume of cell :      15.9170

  direct lattice vectors                    reciprocal lattice vectors
     1.584650000  1.584650000 -1.584650000     0.315527088  0.315527088  0.000000000
    -1.584650000  1.584650000  1.584650000    -0.000000000  0.315527088  0.315527088
     1.584650000 -1.584650000  1.584650000     0.315527088 -0.000000000  0.315527088

  length of vectors
     2.744694312  2.744694312  2.744694312     0.446222687  0.446222687  0.446222687

  position of ions in fractional coordinates (direct lattice)
     0.000000000  0.000000000  0.000000000

  ion indices of the primitive-cell ions
   primitive index   ion index
                 1           1

 KPOINTS: Automatic kpoint scheme

Automatic generation of k-mesh.
 Grid dimensions read from file:
 generate k-points for:   12   12   12

 Generating k-lattice:

  Cartesian coordinates                     Fractional coordinates (reciprocal lattice)
     0.026293924 -0.000000000  0.000000000     0.083333333  0.000000000  0.000000000
     0.000000000  0.026293924  0.000000000     0.000000000  0.083333333  0.000000000
    -0.000000000 -0.000000000  0.026293924     0.000000000  0.000000000  0.083333333

  Length of vectors
     0.026293924  0.026293924  0.026293924

  Shift w.r.t. Gamma in fractional coordinates (k-lattice)
     0.000000000  0.000000000  0.000000000

 Subroutine IBZKPT returns following result:

 Found     84 irreducible k-points:

 Following reciprocal coordinates:
            Coordinates               Weight
  0.000000  0.000000  0.000000      1.000000
  0.083333 -0.000000  0.000000      6.000000
  0.166667  0.000000  0.000000      6.000000
  0.250000  0.000000  0.000000      6.000000
  0.333333  0.000000  0.000000      6.000000
  0.416667 -0.000000  0.000000      6.000000
  0.500000  0.000000  0.000000      3.000000
  0.083333  0.083333  0.000000     12.000000
  0.166667  0.083333  0.000000     24.000000
  0.250000  0.083333  0.000000     24.000000
  0.333333  0.083333  0.000000     24.000000
  0.416667  0.083333  0.000000     24.000000
  0.500000  0.083333  0.000000     12.000000
  0.166667  0.166667  0.000000     12.000000
  0.250000  0.166667  0.000000     24.000000
  0.333333  0.166667  0.000000     24.000000
  0.416667  0.166667  0.000000     24.000000
  0.500000  0.166667  0.000000     12.000000
  0.250000  0.250000  0.000000     12.000000
  0.333333  0.250000  0.000000     24.000000
  0.416667  0.250000  0.000000     24.000000
  0.500000  0.250000  0.000000     12.000000
  0.333333  0.333333  0.000000     12.000000
  0.416667  0.333333  0.000000     24.000000
  0.500000  0.333333  0.000000     12.000000
  0.416667  0.416667  0.000000     12.000000
  0.500000  0.416667  0.000000     12.000000
  0.500000  0.500000  0.000000      3.000000
  0.083333  0.083333  0.083333      8.000000
  0.166667  0.083333  0.083333     24.000000
  0.250000  0.083333  0.083333     24.000000
  0.333333  0.083333  0.083333     24.000000
  0.416667  0.083333  0.083333     24.000000
  0.500000  0.083333  0.083333     12.000000
  0.166667  0.166667  0.083333     24.000000
  0.250000  0.166667  0.083333     48.000000
  0.333333  0.166667  0.083333     48.000000
  0.416667  0.166667  0.083333     48.000000
  0.500000  0.166667  0.083333     24.000000
  0.250000  0.250000  0.083333     24.000000
  0.333333  0.250000  0.083333     48.000000
  0.416667  0.250000  0.083333     48.000000
  0.500000  0.250000  0.083333     24.000000
  0.333333  0.333333  0.083333     24.000000
  0.416667  0.333333  0.083333     48.000000
  0.500000  0.333333  0.083333     24.000000
  0.416667  0.416667  0.083333     24.000000
  0.500000  0.416667  0.083333     24.000000
  0.500000  0.500000  0.083333      6.000000
  0.166667  0.166667  0.166667      8.000000
  0.250000  0.166667  0.166667     24.000000
  0.333333  0.166667  0.166667     24.000000
  0.416667  0.166667  0.166667     24.000000
  0.500000  0.166667  0.166667     12.000000
  0.250000  0.250000  0.166667     24.000000
  0.333333  0.250000  0.166667     48.000000
  0.416667  0.250000  0.166667     48.000000
  0.500000  0.250000  0.166667     24.000000
  0.333333  0.333333  0.166667     24.000000
  0.416667  0.333333  0.166667     48.000000
[...]
  0.416667  0.333333  0.250000     48.000000
  0.500000  0.333333  0.250000     24.000000
  0.416667  0.416667  0.250000     24.000000
  0.500000  0.416667  0.250000     24.000000
  0.500000  0.500000  0.250000      6.000000
  0.333333  0.333333  0.333333      8.000000
  0.416667  0.333333  0.333333     24.000000
  0.500000  0.333333  0.333333     12.000000
  0.416667  0.416667  0.333333     24.000000
  0.500000  0.416667  0.333333     24.000000
  0.500000  0.500000  0.333333      6.000000
  0.416667  0.416667  0.416667      8.000000
  0.500000  0.416667  0.416667     12.000000
  0.500000  0.500000  0.416667      6.000000
  0.500000  0.500000  0.500000      1.000000

 Following cartesian coordinates:
            Coordinates               Weight
  0.000000  0.000000  0.000000      1.000000
  0.026294 -0.000000  0.000000      6.000000
  0.052588 -0.000000  0.000000      6.000000
  0.078882 -0.000000  0.000000      6.000000
  0.105176 -0.000000  0.000000      6.000000
  0.131470 -0.000000  0.000000      6.000000
  0.157764 -0.000000  0.000000      3.000000
  0.026294  0.026294  0.000000     12.000000
  0.052588  0.026294  0.000000     24.000000
  0.078882  0.026294  0.000000     24.000000
  0.105176  0.026294  0.000000     24.000000
  0.131470  0.026294  0.000000     24.000000
  0.157764  0.026294  0.000000     12.000000
  0.052588  0.052588  0.000000     12.000000
  0.078882  0.052588  0.000000     24.000000
  0.105176  0.052588  0.000000     24.000000
  0.131470  0.052588  0.000000     24.000000
  0.157764  0.052588  0.000000     12.000000
  0.078882  0.078882  0.000000     12.000000
  0.105176  0.078882  0.000000     24.000000
  0.131470  0.078882  0.000000     24.000000
  0.157764  0.078882  0.000000     12.000000
  0.105176  0.105176  0.000000     12.000000
  0.131470  0.105176  0.000000     24.000000
  0.157764  0.105176  0.000000     12.000000
  0.131470  0.131470  0.000000     12.000000
  0.157764  0.131470  0.000000     12.000000
  0.157764  0.157764  0.000000      3.000000
  0.026294  0.026294  0.026294      8.000000
  0.052588  0.026294  0.026294     24.000000
  0.078882  0.026294  0.026294     24.000000
  0.105176  0.026294  0.026294     24.000000
  0.131470  0.026294  0.026294     24.000000
  0.157764  0.026294  0.026294     12.000000
  0.052588  0.052588  0.026294     24.000000
  0.078882  0.052588  0.026294     48.000000
  0.105176  0.052588  0.026294     48.000000
  0.131470  0.052588  0.026294     48.000000
  0.157764  0.052588  0.026294     24.000000
  0.078882  0.078882  0.026294     24.000000
  0.105176  0.078882  0.026294     48.000000
  0.131470  0.078882  0.026294     48.000000
  0.157764  0.078882  0.026294     24.000000
  0.105176  0.105176  0.026294     24.000000
  0.131470  0.105176  0.026294     48.000000
  0.157764  0.105176  0.026294     24.000000
  0.131470  0.131470  0.026294     24.000000
  0.157764  0.131470  0.026294     24.000000
  0.157764  0.157764  0.026294      6.000000
  0.052588  0.052588  0.052588      8.000000
  0.078882  0.052588  0.052588     24.000000
  0.105176  0.052588  0.052588     24.000000
  0.131470  0.052588  0.052588     24.000000
[...]
   0.16666667  0.16666667  0.08333333       0.014
   0.25000000  0.16666667  0.08333333       0.028
   0.33333333  0.16666667  0.08333333       0.028
   0.41666667  0.16666667  0.08333333       0.028
   0.50000000  0.16666667  0.08333333       0.014
   0.25000000  0.25000000  0.08333333       0.014
   0.33333333  0.25000000  0.08333333       0.028
   0.41666667  0.25000000  0.08333333       0.028
   0.50000000  0.25000000  0.08333333       0.014
   0.33333333  0.33333333  0.08333333       0.014
   0.41666667  0.33333333  0.08333333       0.028
   0.50000000  0.33333333  0.08333333       0.014
   0.41666667  0.41666667  0.08333333       0.014
   0.50000000  0.41666667  0.08333333       0.014
   0.50000000  0.50000000  0.08333333       0.003
   0.16666667  0.16666667  0.16666667       0.005
   0.25000000  0.16666667  0.16666667       0.014
   0.33333333  0.16666667  0.16666667       0.014
   0.41666667  0.16666667  0.16666667       0.014
   0.50000000  0.16666667  0.16666667       0.007
   0.25000000  0.25000000  0.16666667       0.014
   0.33333333  0.25000000  0.16666667       0.028
   0.41666667  0.25000000  0.16666667       0.028
   0.50000000  0.25000000  0.16666667       0.014
   0.33333333  0.33333333  0.16666667       0.014
   0.41666667  0.33333333  0.16666667       0.028
[...]
   0.41666667  0.33333333  0.25000000       0.028
   0.50000000  0.33333333  0.25000000       0.014
   0.41666667  0.41666667  0.25000000       0.014
   0.50000000  0.41666667  0.25000000       0.014
   0.50000000  0.50000000  0.25000000       0.003
   0.33333333  0.33333333  0.33333333       0.005
   0.41666667  0.33333333  0.33333333       0.014
   0.50000000  0.33333333  0.33333333       0.007
   0.41666667  0.41666667  0.33333333       0.014
   0.50000000  0.41666667  0.33333333       0.014
   0.50000000  0.50000000  0.33333333       0.003
   0.41666667  0.41666667  0.41666667       0.005
   0.50000000  0.41666667  0.41666667       0.007
   0.50000000  0.50000000  0.41666667       0.003
   0.50000000  0.50000000  0.50000000       0.001

 position of ions in fractional coordinates (direct lattice)
   0.00000000  0.00000000  0.00000000
   0.50000000  0.50000000  0.50000000

 position of ions in cartesian coordinates  (Angst):
   0.00000000  0.00000000  0.00000000
   1.58465000  1.58465000  1.58465000

 k-point     1 :   0.0000 0.0000 0.0000  plane waves:     437
 k-point     2 :   0.0833-0.0000 0.0000  plane waves:     413
 k-point     3 :   0.1667 0.0000 0.0000  plane waves:     417
 k-point     4 :   0.2500 0.0000 0.0000  plane waves:     421
 k-point     5 :   0.3333 0.0000 0.0000  plane waves:     409
 k-point     6 :   0.4167-0.0000 0.0000  plane waves:     410
 k-point     7 :   0.5000 0.0000 0.0000  plane waves:     402
 k-point     8 :   0.0833 0.0833 0.0000  plane waves:     415
 k-point     9 :   0.1667 0.0833 0.0000  plane waves:     419
 k-point    10 :   0.2500 0.0833 0.0000  plane waves:     412
 k-point    11 :   0.3333 0.0833 0.0000  plane waves:     410
 k-point    12 :   0.4167 0.0833 0.0000  plane waves:     407
 k-point    13 :   0.5000 0.0833 0.0000  plane waves:     404
 k-point    14 :   0.1667 0.1667 0.0000  plane waves:     413
 k-point    15 :   0.2500 0.1667 0.0000  plane waves:     408
 k-point    16 :   0.3333 0.1667 0.0000  plane waves:     403
 k-point    17 :   0.4167 0.1667 0.0000  plane waves:     407
 k-point    18 :   0.5000 0.1667 0.0000  plane waves:     404
 k-point    19 :   0.2500 0.2500 0.0000  plane waves:     400
 k-point    20 :   0.3333 0.2500 0.0000  plane waves:     404
 k-point    21 :   0.4167 0.2500 0.0000  plane waves:     398
 k-point    22 :   0.5000 0.2500 0.0000  plane waves:     396
 k-point    23 :   0.3333 0.3333 0.0000  plane waves:     402
 k-point    24 :   0.4167 0.3333 0.0000  plane waves:     399
 k-point    25 :   0.5000 0.3333 0.0000  plane waves:     400
 k-point    26 :   0.4167 0.4167 0.0000  plane waves:     402
 k-point    27 :   0.5000 0.4167 0.0000  plane waves:     394
 k-point    28 :   0.5000 0.5000 0.0000  plane waves:     388
 k-point    29 :   0.0833 0.0833 0.0833  plane waves:     416
 k-point    30 :   0.1667 0.0833 0.0833  plane waves:     416
 k-point    31 :   0.2500 0.0833 0.0833  plane waves:     410
 k-point    32 :   0.3333 0.0833 0.0833  plane waves:     412
 k-point    33 :   0.4167 0.0833 0.0833  plane waves:     406
 k-point    34 :   0.5000 0.0833 0.0833  plane waves:     400
 k-point    35 :   0.1667 0.1667 0.0833  plane waves:     412
 k-point    36 :   0.2500 0.1667 0.0833  plane waves:     406
 k-point    37 :   0.3333 0.1667 0.0833  plane waves:     406
 k-point    38 :   0.4167 0.1667 0.0833  plane waves:     408
 k-point    39 :   0.5000 0.1667 0.0833  plane waves:     404
 k-point    40 :   0.2500 0.2500 0.0833  plane waves:     406
 k-point    41 :   0.3333 0.2500 0.0833  plane waves:     406
 k-point    42 :   0.4167 0.2500 0.0833  plane waves:     402
 k-point    43 :   0.5000 0.2500 0.0833  plane waves:     402
 k-point    44 :   0.3333 0.3333 0.0833  plane waves:     405
 k-point    45 :   0.4167 0.3333 0.0833  plane waves:     400
 k-point    46 :   0.5000 0.3333 0.0833  plane waves:     402
 k-point    47 :   0.4167 0.4167 0.0833  plane waves:     396
 k-point    48 :   0.5000 0.4167 0.0833  plane waves:     394
 k-point    49 :   0.5000 0.5000 0.0833  plane waves:     396
 k-point    50 :   0.1667 0.1667 0.1667  plane waves:     410
 k-point    51 :   0.2500 0.1667 0.1667  plane waves:     406
 k-point    52 :   0.3333 0.1667 0.1667  plane waves:     407
 k-point    53 :   0.4167 0.1667 0.1667  plane waves:     410
 k-point    54 :   0.5000 0.1667 0.1667  plane waves:     414
 k-point    55 :   0.2500 0.2500 0.1667  plane waves:     407
 k-point    56 :   0.3333 0.2500 0.1667  plane waves:     408
 k-point    57 :   0.4167 0.2500 0.1667  plane waves:     402
 k-point    58 :   0.5000 0.2500 0.1667  plane waves:     408
 k-point    59 :   0.3333 0.3333 0.1667  plane waves:     403
 k-point    60 :   0.4167 0.3333 0.1667  plane waves:     400
[...]
 k-point    70 :   0.4167 0.3333 0.2500  plane waves:     403
 k-point    71 :   0.5000 0.3333 0.2500  plane waves:     406
 k-point    72 :   0.4167 0.4167 0.2500  plane waves:     402
 k-point    73 :   0.5000 0.4167 0.2500  plane waves:     408
 k-point    74 :   0.5000 0.5000 0.2500  plane waves:     412
 k-point    75 :   0.3333 0.3333 0.3333  plane waves:     413
 k-point    76 :   0.4167 0.3333 0.3333  plane waves:     408
 k-point    77 :   0.5000 0.3333 0.3333  plane waves:     402
 k-point    78 :   0.4167 0.4167 0.3333  plane waves:     400
 k-point    79 :   0.5000 0.4167 0.3333  plane waves:     408
 k-point    80 :   0.5000 0.5000 0.3333  plane waves:     404
 k-point    81 :   0.4167 0.4167 0.4167  plane waves:     402
 k-point    82 :   0.5000 0.4167 0.4167  plane waves:     408
 k-point    83 :   0.5000 0.5000 0.4167  plane waves:     412
 k-point    84 :   0.5000 0.5000 0.5000  plane waves:     432

 maximum and minimum number of plane-waves per node :       437      388

 maximum number of plane-waves:       437
 maximum index in each direction:
   IXMAX=    4   IYMAX=    4   IZMAX=    4
   IXMIN=   -5   IYMIN=   -5   IZMIN=   -5

 serial   3D FFT for wavefunctions
 parallel 3D FFT for charge:
    minimum data exchange during FFTs selected (reduces bandwidth)

 Broyden mixing: mesh for mixing (old mesh)
   NGX =  9   NGY =  9   NGZ =  9
  (NGX  = 28   NGY  = 28   NGZ  = 28)
  gives a total of    729 points

 charge density for first step will be calculated from the start-wavefunctions

 Maximum index for augmentation-charges          293 (set IRDMAX)

 initial charge from wavefunction
 First call to EWALD:  gamma=   0.559
 Maximum number of real-space cells 3x 3x 3
 Maximum number of reciprocal cells 3x 3x 3

--------------------------------------- Ionic step        1  -------------------------------------------

--------------------------------------- Iteration      1(   1)  ---------------------------------------

 eigenvalue-minimisations  :  4128
 total energy-change (2. order) :-0.2187102E+02  (-0.2162648E-07)
 number of electron      27.9999967 magnetization
 augmentation part        4.8949894 magnetization

 Broyden mixing:
  rms(total) = 0.53592E-04    rms(broyden)= 0.53409E-04
  rms(prec ) = 0.72722E-04
  weight for this iteration     100.00

 Free energy of the ion-electron system (eV)
  alpha Z        PSCENC =       231.55998522
  Ewald energy   TEWEN  =     -3240.84836830
  -Hartree energ DENC   =      -541.13812776
  -exchange      EXHF   =         0.00000000
  -V(xc)+E(xc)   XCENC  =       130.77228343
  PAW double counting   =      3240.26525114    -3211.43068222
  entropy T*S    EENTRO =        -0.00102863
  eigenvalues    EBANDS =      -355.48157344
  atomic energy  EATOM  =      3724.43124407
  Solvation  Ediel_sol  =         0.00000000
  free energy    TOTEN  =       -21.87101648 eV

  energy without entropy =      -21.86998785  energy(sigma->0) =      -21.87050217

--------------------------------------- Iteration      1(   2)  ---------------------------------------

 eigenvalue-minimisations  :  4128
 total energy-change (2. order) :-0.2067327E-07  (-0.8029357E-09)
 number of electron      27.9999967 magnetization
 augmentation part        4.8949894 magnetization

 Free energy of the ion-electron system (eV)
  alpha Z        PSCENC =       231.55998522
  Ewald energy   TEWEN  =     -3240.84836830
  -Hartree energ DENC   =      -541.13898786
  -exchange      EXHF   =         0.00000000
  -V(xc)+E(xc)   XCENC  =       130.77232617
  PAW double counting   =      3240.26362666    -3211.42903825
  entropy T*S    EENTRO =        -0.00102864
  eigenvalues    EBANDS =      -355.48077558
  atomic energy  EATOM  =      3724.43124407
  Solvation  Ediel_sol  =         0.00000000
  free energy    TOTEN  =       -21.87101650 eV

  energy without entropy =      -21.86998786  energy(sigma->0) =      -21.87050218

 average (electrostatic) potential at core
  the test charge radii are     1.0818
  (the norm of the test charge is              1.0000)
       1 -69.4857       2 -69.4857

 E-fermi :  12.3845     XC(G=0): -13.2916     alpha+bet :-19.6296

 val. band max:       12.3842880243   @ k =   0.1667   0.1667   0.0833
 cond. band min:      12.4057347208   @ k =   0.2500   0.0000   0.0000
 fundamental gap:      0.0214466965
 Fermi energy:        12.3845284509

 k-point     1 :       0.0000    0.0000    0.0000
  band No.  band energies     occupation
      1     -48.9524      2.00000
      2     -48.5330      2.00000
      3     -23.1903      2.00000
      4     -23.1903      2.00000
      5     -23.1903      2.00000
      6     -22.2725      2.00000
      7     -22.2725      2.00000
      8     -22.2725      2.00000
      9       5.1285      2.00000
     10       7.0026      2.00000
     11       7.0026      2.00000
     12      10.9794      2.00000
     13      10.9794      2.00000
     14      10.9794      2.00000
     15      13.9330      0.00000
     16      13.9330      0.00000
     17      16.1870      0.00000
     18      16.1870      0.00000
     19      16.1870      0.00000
     20      21.2336      0.00000
     21      21.2336      0.00000
     22      21.2336      0.00000
     23      27.1096      0.00000
     24      27.1096      0.00000
     25      27.1096      0.00000
     26      31.6482      0.00000
     27      32.7727      0.00000
     28      32.7727      0.00000
     29      35.6046      0.00000
     30      38.4241      0.00000
     31      38.4241      0.00000
     32      41.8140      0.00000
     33      41.8140      0.00000
     34      41.8140      0.00000
     35      48.1020      0.00000
     36      48.1020      0.00000
     37      48.1020      0.00000
     38      48.7929      0.00000
     39      48.7929      0.00000
     40      48.7929      0.00000
     41      52.1312      0.00000
     42      54.3641      0.00000
     43      54.3641      0.00000
     44      54.3641      0.00000
     45      56.9358      0.00000
     46      56.9358      0.00000
     47      56.9358      0.00000
     48      58.4593      0.00000

[...]

 k-point    84 :       0.5000    0.5000    0.5000
  band No.  band energies     occupation
      1     -48.6873      2.00000
      2     -48.6873      2.00000
      3     -22.9434      2.00000
      4     -22.9434      2.00000
      5     -22.9434      2.00000
      6     -22.9434      2.00000
      7     -22.9434      2.00000
      8     -22.9434      2.00000
      9       9.7296      2.00000
     10       9.7296      2.00000
     11       9.7296      2.00000
     12       9.7296      2.00000
     13       9.7296      2.00000
     14       9.7296      2.00000
     15      14.6855      0.00000
     16      14.6855      0.00000
     17      14.6855      0.00000
     18      14.6855      0.00000
     19      21.7065      0.00000
     20      21.7065      0.00000
     21      23.6737      0.00000
     22      23.6737      0.00000
     23      23.6737      0.00000
     24      23.6737      0.00000
     25      23.6737      0.00000
     26      23.6737      0.00000
     27      37.9432      0.00000
     28      37.9432      0.00000
     29      37.9432      0.00000
     30      37.9432      0.00000
     31      37.9432      0.00000
     32      37.9432      0.00000
     33      40.3478      0.00000
     34      40.3478      0.00000
     35      40.3478      0.00000
     36      40.3478      0.00000
     37      40.3478      0.00000
     38      40.3478      0.00000
     39      52.9597      0.00000
     40      52.9597      0.00000
     41      56.6994      0.00000
     42      56.6994      0.00000
     43      56.6994      0.00000
     44      56.6994      0.00000
     45      59.1501      0.00000
     46      59.1501      0.00000
     47      59.1501      0.00000
     48      59.1501      0.00000

 soft charge-density along one line, spin component           1
         0         1         2         3         4         5         6         7         8         9
 total charge-density along one line

------------------------ aborting loop because EDIFF is reached ----------------------------------------

  FORCE on cell =-STRESS in cart. coord.  units (eV):
  Direction    XX          YY          ZZ          XY          YZ          ZX
  Alpha Z   231.55999   231.55999   231.55999
  Ewald   -1080.28271 -1080.28271 -1080.28271    -0.00000    -0.00000    -0.00000
  Hartree   180.37987   180.37987   180.37987    -0.00000    -0.00000    -0.00000
  E(xc)    -134.29374  -134.29374  -134.29374     0.00000     0.00000    -0.00000
  Local     279.39191   279.39191   279.39191    -0.00000    -0.00000    -0.00000
  n-local   -58.76319   -47.07085   -42.03179     1.37655    -1.12521     0.18984
  augment    68.11656    68.11656    68.11656     0.00000    -0.00000     0.00000
  Kinetic   490.48187   503.57886   517.82626     7.77151    -3.33284     1.66437
  Fock        0.00000     0.00000     0.00000     0.00000     0.00000     0.00000
  Total      -0.45441    -0.45441    -0.45441    -0.00000    -0.00000    -0.00000
  in kB     -22.87008   -22.87008   -22.87008    -0.00000    -0.00000    -0.00000

 VOLUME and BASIS-vectors are now :
  energy-cutoff  :      315.48
  volume of cell :       31.83
      direct lattice vectors                 reciprocal lattice vectors
     3.169300000  0.000000000  0.000000000     0.315527088 -0.000000000  0.000000000
     0.000000000  3.169300000  0.000000000     0.000000000  0.315527088  0.000000000
     0.000000000  0.000000000  3.169300000    -0.000000000 -0.000000000  0.315527088

  length of vectors
     3.169300000  3.169300000  3.169300000     0.315527088  0.315527088  0.315527088

 FORCES acting on ions
    electron-ion (+dipol)            ewald-force                    non-local-force                 convergence-correction
   -.204E-13 -.241E-13 -.245E-13   -.186E-13 0.413E-14 -.511E-14   -.949E-27 0.848E-27 0.243E-26   -.564E-14 0.315E-14 -.997E-14
   0.207E-12 -.172E-11 -.233E-13   0.217E-13 -.474E-14 0.853E-14   -.333E-26 -.619E-26 -.386E-26   0.127E-13 0.265E-14 0.233E-14
   0.187E-12 -.174E-11 -.478E-13   0.304E-14 -.612E-15 0.342E-14   -.427E-26 -.534E-26 -.144E-26   0.711E-14 0.580E-14 -.765E-14

 POSITION                                       TOTAL-FORCE (eV/Angst)
      0.00000      0.00000      0.00000        -0.000000     -0.000000     -0.000000
      1.58465      1.58465      1.58465         0.000000      0.000000      0.000000
    total drift:                                0.000000     -0.000000     -0.000000

  FREE ENERGIE OF THE ION-ELECTRON SYSTEM (eV)
  free  energy   TOTEN  =       -21.87101650 eV

  energy  without entropy=      -21.86998786  energy(sigma->0) =      -21.87050218

 writing wavefunctions