 vasp.6.4.3 19Mar24 (build Jun 26 2024 13:02:28) complex

 executed on             LinuxIFC date 2025.08.08  19:52:51

 INCAR:
   ENCUT = 289.9741
   IBRION = -1
   ISMEAR = 0
   ISYM = 2
   LCHARG = True
   LSORBIT = True
   LWAVE = True
   SAXIS = 0 0 1
   SIGMA = 0.05
   SYSTEM = W

 POTCAR:  PAW_PBE W_sv 04Sep2015
|           W    W    AA    RRRRR   N    N  II  N    N   GGGG   !!!           |
|           W    W   A  A   R    R  NN   N  II  NN   N  G    G  !!!           |
|           W    W  A    A  R    R  N N  N  II  N N  N  G       !!!           |
|           W WW W  AAAAAA  RRRRR   N  N N  II  N  N N  G  GGG   !            |
|           WW  WW  A    A  R   R   N   NN  II  N   NN  G    G                |
|           W    W  A    A  R    R  N    N  II  N    N   GGGG   !!!           |
|     You use a magnetic or noncollinear calculation, but did not specify     |
|     the initial magnetic moment with the MAGMOM tag. Note that a            |
|     default of 1 will be used for all atoms. This ferromagnetic setup       |
|     may break the symmetry of the crystal, in particular it may rule        |
|     out finding an antiferromagnetic solution. Thence, we recommend         |
|     setting the initial magnetic moment manually or verifying carefully     |
|     that this magnetic setup is desired.                                    |

 POTCAR:  PAW_PBE W_sv 04Sep2015
   VRHFIN =W : 5p6s5d

   TITEL  = PAW_PBE W_sv 04Sep2015
   POMASS =  183.850; ZVAL   =   14.000    mass and valenz
   ENMAX  =  223.057; ENMIN  =  167.293 eV

PAW_PBE W_sv 04Sep2015                  :

 POSCAR: W2
  positions in direct lattice

 exchange-correlation table for PE
   RHO(1)=    0.500       N(1)  =     2000
   RHO(2)=  100.500       N(2)  =     4000

 ion  position               nearest neighbor table
   1  0.000  0.000  0.000-   2 2.76   2 2.76   2 2.76   2 2.76   2 2.76   2 2.76   2 2.76   2 2.76

   2  0.500  0.500  0.500-   1 2.76   1 2.76   1 2.76   1 2.76   1 2.76   1 2.76   1 2.76   1 2.76

  LATTYP: Found a simple cubic cell.
 ALAT       =     3.1896800000

  Lattice vectors:

 A1 = (   3.1896800000,   0.0000000000,   0.0000000000)
 A2 = (   0.0000000000,   3.1896800000,   0.0000000000)
 A3 = (   0.0000000000,   0.0000000000,   3.1896800000)

Analysis of symmetry for initial positions (statically):
 Subroutine PRICEL returns following result:

  LATTYP: Found a body centered cubic cell.
 ALAT       =     3.1896800000

[...]

   2 primitive cells build up your supercell.

 Routine SETGRP: Setting up the symmetry group for a
 simple cubic supercell.

 Subroutine GETGRP returns: Found 48 space group operations
 (whereof 48 operations were pure point group operations)
 out of a pool of 48 trial point group operations.

The static configuration has the point symmetry O_h .

Analysis of symmetry for dynamics (positions and initial velocities):
 Subroutine PRICEL returns following result:

[...]

The dynamic configuration has the point symmetry O_h .

Analysis of structural, dynamic, and magnetic symmetry:
 Subroutine PRICEL returns following result:

  LATTYP: Found a body centered cubic cell.
 ALAT       =     3.1896800000

  Lattice vectors:

 A1 = (   1.5948400000,   1.5948400000,  -1.5948400000)
 A2 = (  -1.5948400000,   1.5948400000,   1.5948400000)
 A3 = (   1.5948400000,  -1.5948400000,   1.5948400000)

   2 primitive cells build up your supercell.

 Routine SETGRP: Setting up the symmetry group for a
 simple cubic supercell.

 Subroutine GETGRP returns: Found  6 space group operations
 (whereof  6 operations were pure point group operations)
 out of a pool of 48 trial point group operations.

The overall configuration has the point symmetry S_6 .

 Subroutine INISYM returns: Found  6 space group operations
 (whereof  6 operations are pure point group operations),
 and found     2 'primitive' translations

                                     Primitive cell

  volume of cell :      16.2260

  direct lattice vectors                    reciprocal lattice vectors
     1.594840000  1.594840000 -1.594840000     0.313511073  0.313511073 -0.000000000
    -1.594840000  1.594840000  1.594840000    -0.000000000  0.313511073  0.313511073
     1.594840000 -1.594840000  1.594840000     0.313511073 -0.000000000  0.313511073

  length of vectors
     2.762343910  2.762343910  2.762343910     0.443371612  0.443371612  0.443371612

  position of ions in fractional coordinates (direct lattice)
     0.000000000  0.000000000  0.000000000

  ion indices of the primitive-cell ions
   primitive index   ion index
                 1           1

 KPOINTS: Automatic kpoint scheme

Automatic generation of k-mesh.
 Grid dimensions read from file:
 generate k-points for:   12   12   12

 Generating k-lattice:

  Cartesian coordinates                     Fractional coordinates (reciprocal lattice)
     0.026125923 -0.000000000  0.000000000     0.083333333  0.000000000  0.000000000
     0.000000000  0.026125923  0.000000000     0.000000000  0.083333333  0.000000000
    -0.000000000 -0.000000000  0.026125923    -0.000000000 -0.000000000  0.083333333

  Length of vectors
     0.026125923  0.026125923  0.026125923

  Shift w.r.t. Gamma in fractional coordinates (k-lattice)
     0.000000000  0.000000000  0.000000000

 Subroutine IBZKPT returns following result:

 Found    294 irreducible k-points:

 Following reciprocal coordinates:
            Coordinates               Weight
  0.000000  0.000000  0.000000      1.000000
  0.083333  0.000000  0.000000      6.000000
  0.166667  0.000000  0.000000      6.000000
  0.250000  0.000000  0.000000      6.000000
  0.333333  0.000000  0.000000      6.000000
  0.416667 -0.000000  0.000000      6.000000
  0.500000  0.000000  0.000000      3.000000
  0.083333  0.083333  0.000000      6.000000
 -0.083333  0.083333  0.000000      6.000000
  0.166667  0.083333  0.000000      6.000000
 -0.083333  0.166667  0.000000      6.000000
 -0.000000  0.083333  0.166667      6.000000
 -0.000000 -0.166667  0.083333      6.000000
  0.250000  0.083333  0.000000      6.000000
 -0.083333  0.250000  0.000000      6.000000
  0.000000  0.083333  0.250000      6.000000
 -0.000000 -0.250000  0.083333      6.000000
  0.333333  0.083333  0.000000      6.000000
 -0.083333  0.333333  0.000000      6.000000
  0.000000  0.083333  0.333333      6.000000
 -0.000000 -0.333333  0.083333      6.000000
  0.416667  0.083333  0.000000      6.000000
 -0.083333  0.416667  0.000000      6.000000
 -0.000000  0.083333  0.416667      6.000000
 -0.000000 -0.416667  0.083333      6.000000
  0.500000  0.083333  0.000000      6.000000
 -0.083333  0.500000  0.000000      6.000000
  0.166667  0.166667  0.000000      6.000000
 -0.166667  0.166667  0.000000      6.000000
  0.250000  0.166667  0.000000      6.000000
 -0.166667  0.250000  0.000000      6.000000
  0.000000  0.166667  0.250000      6.000000
 -0.000000 -0.250000  0.166667      6.000000
  0.333333  0.166667  0.000000      6.000000
 -0.166667  0.333333  0.000000      6.000000
  0.000000  0.166667  0.333333      6.000000
 -0.000000 -0.333333  0.166667      6.000000
  0.416667  0.166667  0.000000      6.000000
 -0.166667  0.416667  0.000000      6.000000
 -0.000000  0.166667  0.416667      6.000000
 -0.000000 -0.416667  0.166667      6.000000
  0.500000  0.166667  0.000000      6.000000
 -0.166667  0.500000  0.000000      6.000000
  0.250000  0.250000  0.000000      6.000000
 -0.250000  0.250000  0.000000      6.000000
  0.333333  0.250000  0.000000      6.000000
 -0.250000  0.333333  0.000000      6.000000
  0.000000  0.250000  0.333333      6.000000
  0.000000 -0.333333  0.250000      6.000000
  0.416667  0.250000  0.000000      6.000000
 -0.250000  0.416667  0.000000      6.000000
 -0.000000  0.250000  0.416667      6.000000
  0.000000 -0.416667  0.250000      6.000000
  0.500000  0.250000  0.000000      6.000000
 -0.250000  0.500000  0.000000      6.000000
  0.333333  0.333333  0.000000      6.000000
 -0.333333  0.333333  0.000000      6.000000
  0.416667  0.333333  0.000000      6.000000
 -0.333333  0.416667  0.000000      6.000000
 -0.000000  0.333333  0.416667      6.000000
[...]
  0.416667  0.416667  0.333333      6.000000
 -0.416667  0.416667  0.333333      6.000000
 -0.416667  0.333333  0.416667      6.000000
 -0.333333  0.416667  0.416667      6.000000
  0.500000  0.416667  0.333333      6.000000
 -0.416667  0.500000  0.333333      6.000000
  0.500000  0.333333  0.416667      6.000000
  0.500000 -0.416667  0.333333      6.000000
  0.500000  0.500000  0.333333      6.000000
  0.416667  0.416667  0.416667      2.000000
 -0.416667  0.416667  0.416667      6.000000
  0.500000  0.416667  0.416667      6.000000
 -0.416667  0.500000  0.416667      6.000000
  0.500000  0.500000  0.416667      6.000000
  0.500000  0.500000  0.500000      1.000000

 Following cartesian coordinates:
            Coordinates               Weight
  0.000000  0.000000  0.000000      1.000000
  0.026126 -0.000000  0.000000      6.000000
  0.052252 -0.000000  0.000000      6.000000
  0.078378 -0.000000  0.000000      6.000000
  0.104504 -0.000000  0.000000      6.000000
  0.130630 -0.000000  0.000000      6.000000
  0.156756 -0.000000  0.000000      3.000000
  0.026126  0.026126  0.000000      6.000000
 -0.026126  0.026126  0.000000      6.000000
  0.052252  0.026126  0.000000      6.000000
 -0.026126  0.052252  0.000000      6.000000
 -0.000000  0.026126  0.052252      6.000000
 -0.000000 -0.052252  0.026126      6.000000
  0.078378  0.026126  0.000000      6.000000
 -0.026126  0.078378  0.000000      6.000000
 -0.000000  0.026126  0.078378      6.000000
 -0.000000 -0.078378  0.026126      6.000000
  0.104504  0.026126  0.000000      6.000000
 -0.026126  0.104504  0.000000      6.000000
 -0.000000  0.026126  0.104504      6.000000
 -0.000000 -0.104504  0.026126      6.000000
  0.130630  0.026126  0.000000      6.000000
 -0.026126  0.130630  0.000000      6.000000
 -0.000000  0.026126  0.130630      6.000000
 -0.000000 -0.130630  0.026126      6.000000
  0.156756  0.026126  0.000000      6.000000
 -0.026126  0.156756  0.000000      6.000000
  0.052252  0.052252  0.000000      6.000000
 -0.052252  0.052252  0.000000      6.000000
  0.078378  0.052252  0.000000      6.000000
 -0.052252  0.078378  0.000000      6.000000
 -0.000000  0.052252  0.078378      6.000000
 -0.000000 -0.078378  0.052252      6.000000
  0.104504  0.052252  0.000000      6.000000
 -0.052252  0.104504  0.000000      6.000000
 -0.000000  0.052252  0.104504      6.000000
 -0.000000 -0.104504  0.052252      6.000000
  0.130630  0.052252  0.000000      6.000000
 -0.052252  0.130630  0.000000      6.000000
 -0.000000  0.052252  0.130630      6.000000
 -0.000000 -0.130630  0.052252      6.000000
  0.156756  0.052252  0.000000      6.000000
 -0.052252  0.156756  0.000000      6.000000
  0.078378  0.078378  0.000000      6.000000
 -0.078378  0.078378  0.000000      6.000000
  0.104504  0.078378  0.000000      6.000000
 -0.078378  0.104504  0.000000      6.000000
 -0.000000  0.078378  0.104504      6.000000
 -0.000000 -0.104504  0.078378      6.000000
  0.130630  0.078378  0.000000      6.000000
 -0.078378  0.130630  0.000000      6.000000
[...]
 k-point    10 :   0.1667 0.0833 0.0000  plane waves:     740
 k-point    11 :  -0.0833 0.1667 0.0000  plane waves:     740
 k-point    12 :  -0.0000 0.0833 0.1667  plane waves:     740
 k-point    13 :  -0.0000-0.1667 0.0833  plane waves:     740
 k-point    14 :   0.2500 0.0833 0.0000  plane waves:     738
 k-point    15 :  -0.0833 0.2500 0.0000  plane waves:     738
 k-point    16 :   0.0000 0.0833 0.2500  plane waves:     738
 k-point    17 :  -0.0000-0.2500 0.0833  plane waves:     738
 k-point    18 :   0.3333 0.0833 0.0000  plane waves:     726
 k-point    19 :  -0.0833 0.3333 0.0000  plane waves:     726
 k-point    20 :   0.0000 0.0833 0.3333  plane waves:     726
 k-point    21 :  -0.0000-0.3333 0.0833  plane waves:     726
 k-point    22 :   0.4167 0.0833 0.0000  plane waves:     730
 k-point    23 :  -0.0833 0.4167 0.0000  plane waves:     730
 k-point    24 :  -0.0000 0.0833 0.4167  plane waves:     730
 k-point    25 :  -0.0000-0.4167 0.0833  plane waves:     730
 k-point    26 :   0.5000 0.0833 0.0000  plane waves:     728
 k-point    27 :  -0.0833 0.5000 0.0000  plane waves:     728
 k-point    28 :   0.1667 0.1667 0.0000  plane waves:     740
 k-point    29 :  -0.1667 0.1667 0.0000  plane waves:     740
 k-point    30 :   0.2500 0.1667 0.0000  plane waves:     746
 k-point    31 :  -0.1667 0.2500 0.0000  plane waves:     746
 k-point    32 :   0.0000 0.1667 0.2500  plane waves:     746
 k-point    33 :  -0.0000-0.2500 0.1667  plane waves:     746
 k-point    34 :   0.3333 0.1667 0.0000  plane waves:     740
 k-point    35 :  -0.1667 0.3333 0.0000  plane waves:     740
 k-point    36 :   0.0000 0.1667 0.3333  plane waves:     740
 k-point    37 :  -0.0000-0.3333 0.1667  plane waves:     740
 k-point    38 :   0.4167 0.1667 0.0000  plane waves:     736
 k-point    39 :  -0.1667 0.4167 0.0000  plane waves:     736
 k-point    40 :  -0.0000 0.1667 0.4167  plane waves:     736
 k-point    41 :  -0.0000-0.4167 0.1667  plane waves:     736
 k-point    42 :   0.5000 0.1667 0.0000  plane waves:     744
 k-point    43 :  -0.1667 0.5000 0.0000  plane waves:     744
 k-point    44 :   0.2500 0.2500 0.0000  plane waves:     716
 k-point    45 :  -0.2500 0.2500 0.0000  plane waves:     716
 k-point    46 :   0.3333 0.2500 0.0000  plane waves:     736
 k-point    47 :  -0.2500 0.3333 0.0000  plane waves:     736
 k-point    48 :   0.0000 0.2500 0.3333  plane waves:     736
 k-point    49 :   0.0000-0.3333 0.2500  plane waves:     736
 k-point    50 :   0.4167 0.2500 0.0000  plane waves:     728
 k-point    51 :  -0.2500 0.4167 0.0000  plane waves:     728
 k-point    52 :  -0.0000 0.2500 0.4167  plane waves:     728
 k-point    53 :   0.0000-0.4167 0.2500  plane waves:     728
 k-point    54 :   0.5000 0.2500 0.0000  plane waves:     724
 k-point    55 :  -0.2500 0.5000 0.0000  plane waves:     724
 k-point    56 :   0.3333 0.3333 0.0000  plane waves:     728
 k-point    57 :  -0.3333 0.3333 0.0000  plane waves:     728
 k-point    58 :   0.4167 0.3333 0.0000  plane waves:     720
 k-point    59 :  -0.3333 0.4167 0.0000  plane waves:     720
 k-point    60 :  -0.0000 0.3333 0.4167  plane waves:     720
[...]
 k-point   280 :   0.4167 0.4167 0.3333  plane waves:     710
 k-point   281 :  -0.4167 0.4167 0.3333  plane waves:     710
 k-point   282 :  -0.4167 0.3333 0.4167  plane waves:     710
 k-point   283 :  -0.3333 0.4167 0.4167  plane waves:     710
 k-point   284 :   0.5000 0.4167 0.3333  plane waves:     716
 k-point   285 :  -0.4167 0.5000 0.3333  plane waves:     716
 k-point   286 :   0.5000 0.3333 0.4167  plane waves:     716
 k-point   287 :   0.5000-0.4167 0.3333  plane waves:     716
 k-point   288 :   0.5000 0.5000 0.3333  plane waves:     728
 k-point   289 :   0.4167 0.4167 0.4167  plane waves:     706
 k-point   290 :  -0.4167 0.4167 0.4167  plane waves:     706
 k-point   291 :   0.5000 0.4167 0.4167  plane waves:     712
 k-point   292 :  -0.4167 0.5000 0.4167  plane waves:     712
 k-point   293 :   0.5000 0.5000 0.4167  plane waves:     720
 k-point   294 :   0.5000 0.5000 0.5000  plane waves:     720

 maximum and minimum number of plane-waves per node :       760      706

 maximum number of plane-waves:       760
 maximum index in each direction:
   IXMAX=    4   IYMAX=    4   IZMAX=    4
   IXMIN=   -4   IYMIN=   -4   IZMIN=   -4

 serial   3D FFT for wavefunctions
 parallel 3D FFT for charge:
    minimum data exchange during FFTs selected (reduces bandwidth)

 Broyden mixing: mesh for mixing (old mesh)
   NGX =  9   NGY =  9   NGZ =  9
  (NGX  = 28   NGY  = 28   NGZ  = 28)
  gives a total of    729 points

 charge density for first step will be calculated from the start-wavefunctions

 Maximum index for augmentation-charges          341 (set IRDMAX)

 initial charge from wavefunction
 First call to EWALD:  gamma=   0.556
 Maximum number of real-space cells 3x 3x 3
 Maximum number of reciprocal cells 3x 3x 3

--------------------------------------- Ionic step        1  -------------------------------------------

--------------------------------------- Iteration      1(   1)  ---------------------------------------

 eigenvalue-minimisations  : 14160
 total energy-change (2. order) :-0.2755004E+02  (-0.6404388E-06)
 number of electron      28.0000058 magnetization       0.0000042      0.0000042      0.0000042
 augmentation part        8.4927128 magnetization      -0.0000018     -0.0000018     -0.0000018

 Broyden mixing:
  rms(total) = 0.96595E-03    rms(broyden)= 0.96595E-03
  rms(prec ) = 0.11544E-02
  weight for this iteration     100.00

 Free energy of the ion-electron system (eV)
  alpha Z        PSCENC =       295.23514728
  Ewald energy   TEWEN  =     -3220.14143539
  -Hartree energ DENC   =      -492.55626794
  -exchange      EXHF   =         0.00000000
  -V(xc)+E(xc)   XCENC  =       112.95773509
  PAW double counting   =      4572.38502198    -4539.53890114
  entropy T*S    EENTRO =        -0.00088409
  eigenvalues    EBANDS =      -486.98297174
  atomic energy  EATOM  =      3731.09251179
  Solvation  Ediel_sol  =         0.00000000
  free energy    TOTEN  =       -27.55004416 eV

  energy without entropy =      -27.54916007  energy(sigma->0) =      -27.54960211

--------------------------------------- Iteration      1(   2)  ---------------------------------------

 eigenvalue-minimisations  : 14112
 total energy-change (2. order) : 0.1185022E-06  (-0.4789662E-07)
 number of electron      28.0000058 magnetization       0.0000042      0.0000042      0.0000042
 augmentation part        8.4927128 magnetization      -0.0000018     -0.0000018     -0.0000018

 Free energy of the ion-electron system (eV)
  alpha Z        PSCENC =       295.23514728
  Ewald energy   TEWEN  =     -3220.14143539
  -Hartree energ DENC   =      -492.56735417
  -exchange      EXHF   =         0.00000000
  -V(xc)+E(xc)   XCENC  =       112.95826834
  PAW double counting   =      4572.06591068    -4539.21882940
  entropy T*S    EENTRO =        -0.00088344
  eigenvalues    EBANDS =      -486.97337974
  atomic energy  EATOM  =      3731.09251179
  Solvation  Ediel_sol  =         0.00000000
  free energy    TOTEN  =       -27.55004404 eV

  energy without entropy =      -27.54916060  energy(sigma->0) =      -27.54960232

 average (electrostatic) potential at core
  the test charge radii are     1.1823
  (the norm of the test charge is              1.0000)
       1 -61.0410       2 -61.0410

 E-fermi :  11.1547     XC(G=0): -13.5101     alpha+bet :-17.8027

 val. band max:       11.0475669422   @ k =   0.0000   0.0833   0.2500
 cond. band min:      11.1608883503   @ k =  -0.4167   0.5000   0.0000
 fundamental gap:      0.1133214081
 Fermi energy:        11.1546867471

 k-point     1 :       0.0000    0.0000    0.0000
  band No.  band energies     occupation
      1     -63.0956      1.00000
      2     -63.0956      1.00000
      3     -62.8847      1.00000
      4     -62.8847      1.00000
      5     -33.3292      1.00000
      6     -33.3292      1.00000
      7     -32.7958      1.00000
      8     -32.7958      1.00000
      9     -24.8360      1.00000
     10     -24.8360      1.00000
     11     -24.8360      1.00000
     12     -24.8360      1.00000
     13     -23.7998      1.00000
     14     -23.7998      1.00000
     15     -23.7997      1.00000
     16     -23.7997      1.00000
     17       1.5999      1.00000
     18       1.5999      1.00000
     19       5.4478      1.00000
     20       5.4478      1.00000
     21       5.4478      1.00000
     22       5.4478      1.00000
     23       9.7191      1.00000
     24       9.7191      1.00000
     25       9.7191      1.00000
     26       9.7191      1.00000
     27      10.2267      1.00000
     28      10.2267      1.00000
     29      13.3532      0.00000
     30      13.3532      0.00000
     31      13.3532      0.00000
     32      13.3532      0.00000
     33      15.8697      0.00000
     34      15.8697      0.00000
     35      15.8697      0.00000
     36      15.8697      0.00000
     37      16.5816      0.00000
     38      16.5816      0.00000
     39      17.8190      0.00000
     40      17.8190      0.00000
     41      19.9332      0.00000
     42      19.9332      0.00000
     43      19.9332      0.00000
     44      19.9332      0.00000
     45      25.5767      0.00000
     46      25.5767      0.00000
     47      25.5767      0.00000
     48      25.5767      0.00000

[...]

 k-point   294 :       0.5000    0.5000    0.5000
  band No.  band energies     occupation
      1     -62.9669      1.00000
      2     -62.9669      1.00000
      3     -62.9669      1.00000
      4     -62.9669      1.00000
      5     -33.1631      1.00000
      6     -33.1631      1.00000
      7     -33.1631      1.00000
      8     -33.1631      1.00000
      9     -24.5604      1.00000
     10     -24.5604      1.00000
     11     -24.5604      1.00000
     12     -24.5604      1.00000
     13     -24.5604      1.00000
     14     -24.5604      1.00000
     15     -24.5604      1.00000
     16     -24.5604      1.00000
     17       7.8685      1.00000
     18       7.8685      1.00000
     19       7.8685      1.00000
     20       7.8685      1.00000
     21       8.3672      1.00000
     22       8.3672      1.00000
     23       8.3672      1.00000
     24       8.3672      1.00000
     25       8.3672      1.00000
     26       8.3672      1.00000
     27       8.3672      1.00000
     28       8.3672      1.00000
     29      14.2994      0.00000
     30      14.2994      0.00000
     31      14.2994      0.00000
     32      14.2994      0.00000
     33      14.2995      0.00000
     34      14.2995      0.00000
     35      14.2995      0.00000
     36      14.2995      0.00000
     37      17.4974      0.00000
     38      17.4974      0.00000
     39      17.4974      0.00000
     40      17.4974      0.00000
     41      22.8728      0.00000
     42      22.8728      0.00000
     43      22.8728      0.00000
     44      22.8728      0.00000
     45      23.2739      0.00000
     46      23.2739      0.00000
     47      23.2739      0.00000
     48      23.2739      0.00000

 soft charge-density along one line, spin component           1
         0         1         2         3         4         5         6         7         8         9
 total charge-density along one line

[...]

 soft charge-density along one line, spin component           4
         0         1         2         3         4         5         6         7         8         9
 total charge-density along one line

------------------------ aborting loop because EDIFF is reached ----------------------------------------

  FORCE on cell =-STRESS in cart. coord.  units (eV):
  Direction    XX          YY          ZZ          XY          YZ          ZX
  Alpha Z   295.23515   295.23515   295.23515
  Ewald   -1073.38040 -1073.38040 -1073.38040     0.00000     0.00000     0.00000
  Hartree   164.19299   164.19299   164.19299     0.00000     0.00000     0.00000
  E(xc)    -132.62765  -132.62765  -132.62765    -0.00000    -0.00000    -0.00000
  Local     266.42974   266.42974   266.42974    -0.00001    -0.00001    -0.00001
  n-local    -2.50837    -0.75357     2.06653     0.17026    -0.03809    -0.13217
  augment   131.32735   131.32735   131.32735    -0.00000    -0.00000    -0.00000
  Kinetic   344.69651   347.33235   354.93994     0.44124    -0.31133    -0.12990
  Fock        0.00000     0.00000     0.00000     0.00000     0.00000     0.00000
  Total      -0.23169    -0.23169    -0.23169    -0.00001    -0.00001    -0.00001
  in kB     -11.43870   -11.43870   -11.43870    -0.00045    -0.00045    -0.00045

 VOLUME and BASIS-vectors are now :
  energy-cutoff  :      289.97
  volume of cell :       32.45
      direct lattice vectors                 reciprocal lattice vectors
     3.189680000  0.000000000  0.000000000     0.313511073 -0.000000000  0.000000000
     0.000000000  3.189680000  0.000000000     0.000000000  0.313511073  0.000000000
     0.000000000  0.000000000  3.189680000    -0.000000000 -0.000000000  0.313511073

  length of vectors
     3.189680000  3.189680000  3.189680000     0.313511073  0.313511073  0.313511073

 FORCES acting on ions
    electron-ion (+dipol)            ewald-force                    non-local-force                 convergence-correction
   -.256E-13 -.313E-13 -.238E-13   0.114E-13 -.131E-13 -.795E-14   -.264E-23 -.177E-23 0.648E-23   -.115E-13 -.710E-14 -.204E-13
   0.247E-12 0.217E-12 0.236E-12   -.876E-14 0.112E-13 0.961E-14   -.860E-23 -.922E-23 -.626E-23   -.662E-14 0.165E-13 -.269E-13
   0.222E-12 0.185E-12 0.212E-12   0.264E-14 -.197E-14 0.166E-14   -.112E-22 -.110E-22 0.216E-24   -.181E-13 0.938E-14 -.473E-13

 POSITION                                       TOTAL-FORCE (eV/Angst)
      0.00000      0.00000      0.00000         0.000000      0.000000      0.000000
      1.59484      1.59484      1.59484        -0.000000     -0.000000     -0.000000
    total drift:                                0.000000      0.000000      0.000000

  FREE ENERGIE OF THE ION-ELECTRON SYSTEM (eV)
  free  energy   TOTEN  =       -27.55004404 eV

  energy  without entropy=      -27.54916060  energy(sigma->0) =      -27.54960232

 writing wavefunctions

 Spin-Orbit-Coupling matrix elements

 Ion:    1  E_soc:     -1.6267220
 l=   1
     0.0000000    -0.2277851    -0.2277851
    -0.2277851     0.0000000    -0.2277851
    -0.2277851    -0.2277851     0.0000000
 l=   2
     0.0000000    -0.0110210     0.0000000    -0.0110210    -0.0323143
    -0.0110210     0.0000000    -0.0242357    -0.0110210    -0.0080786
     0.0000000    -0.0242357     0.0000000    -0.0242357     0.0000000
    -0.0110210    -0.0110210    -0.0242357     0.0000000    -0.0080786
    -0.0323143    -0.0080786     0.0000000    -0.0080786     0.0000000
 l=   3
     0.0000000     0.0000000     0.0000000     0.0000000     0.0000000     0.0000000     0.0000000
     0.0000000     0.0000000     0.0000000     0.0000000     0.0000000     0.0000000     0.0000000
     0.0000000     0.0000000     0.0000000     0.0000000     0.0000000     0.0000000     0.0000000
     0.0000000     0.0000000     0.0000000     0.0000000     0.0000000     0.0000000     0.0000000
     0.0000000     0.0000000     0.0000000     0.0000000     0.0000000     0.0000000     0.0000000
     0.0000000     0.0000000     0.0000000     0.0000000     0.0000000     0.0000000     0.0000000
     0.0000000     0.0000000     0.0000000     0.0000000     0.0000000     0.0000000     0.0000000

 Ion:    2  E_soc:     -1.6267220
 l=   1
     0.0000000    -0.2277851    -0.2277851
    -0.2277851     0.0000000    -0.2277851
    -0.2277851    -0.2277851     0.0000000
 l=   2
     0.0000000    -0.0110210     0.0000000    -0.0110210    -0.0323143
    -0.0110210     0.0000000    -0.0242357    -0.0110210    -0.0080786
     0.0000000    -0.0242357     0.0000000    -0.0242357     0.0000000
    -0.0110210    -0.0110210    -0.0242357     0.0000000    -0.0080786
    -0.0323143    -0.0080786     0.0000000    -0.0080786     0.0000000
 l=   3
     0.0000000     0.0000000     0.0000000     0.0000000     0.0000000     0.0000000     0.0000000
     0.0000000     0.0000000     0.0000000     0.0000000     0.0000000     0.0000000     0.0000000
     0.0000000     0.0000000     0.0000000     0.0000000     0.0000000     0.0000000     0.0000000
     0.0000000     0.0000000     0.0000000     0.0000000     0.0000000     0.0000000     0.0000000
     0.0000000     0.0000000     0.0000000     0.0000000     0.0000000     0.0000000     0.0000000
     0.0000000     0.0000000     0.0000000     0.0000000     0.0000000     0.0000000     0.0000000
     0.0000000     0.0000000     0.0000000     0.0000000     0.0000000     0.0000000     0.0000000