 vasp.6.4.3 19Mar24 (build Jun 26 2024 13:02:28) complex

 executed on             LinuxIFC date 2025.08.08  18:47:54

 INCAR:
   ENCUT = 342.7749
   IBRION = -1
   ISMEAR = 0
   ISYM = 2
   LCHARG = True
   LWAVE = True
   SIGMA = 0.05
   SYSTEM = V

 POTCAR:  PAW_PBE V_sv 02Aug2007
|           W    W    AA    RRRRR   N    N  II  N    N   GGGG   !!!           |
|           W    W   A  A   R    R  NN   N  II  NN   N  G    G  !!!           |
|           W    W  A    A  R    R  N N  N  II  N N  N  G       !!!           |
|           W WW W  AAAAAA  RRRRR   N  N N  II  N  N N  G  GGG   !            |
|           WW  WW  A    A  R   R   N   NN  II  N   NN  G    G                |
|           W    W  A    A  R    R  N    N  II  N    N   GGGG   !!!           |
|     For optimal performance we recommend to set                             |
|       NCORE = 2 up to number-of-cores-per-socket                            |
|     This setting can greatly improve the performance of VASP for DFT.       |
|     The default, NCORE=1 might be grossly inefficient on modern             |
|     multi-core architectures or massively parallel machines. Do your        |
|     Unfortunately you need to use the default for GW and RPA                |
|     calculations (for HF NCORE is supported but not extensively tested      |
|     yet).                                                                   |

 POTCAR:  PAW_PBE V_sv 02Aug2007
   VRHFIN =V: p6 d4 s1

   TITEL  = PAW_PBE V_sv 02Aug2007
   POMASS =   50.941; ZVAL   =   13.000    mass and valenz
   ENMAX  =  263.673; ENMIN  =  197.755 eV

PAW_PBE V_sv 02Aug2007                  :

 POSCAR: V2
  positions in direct lattice

 exchange-correlation table for PE
   RHO(1)=    0.500       N(1)  =     2000
   RHO(2)=  100.500       N(2)  =     4000

 ion  position               nearest neighbor table
   1  0.000  0.000  0.000-   2 2.60   2 2.60   2 2.60   2 2.60   2 2.60   2 2.60   2 2.60   2 2.60

   2  0.500  0.500  0.500-   1 2.60   1 2.60   1 2.60   1 2.60   1 2.60   1 2.60   1 2.60   1 2.60

  LATTYP: Found a simple cubic cell.
 ALAT       =     2.9989400000

  Lattice vectors:

 A1 = (   2.9989400000,   0.0000000000,   0.0000000000)
 A2 = (   0.0000000000,   2.9989400000,   0.0000000000)
 A3 = (   0.0000000000,   0.0000000000,   2.9989400000)

Analysis of symmetry for initial positions (statically):
 Subroutine PRICEL returns following result:

  LATTYP: Found a body centered cubic cell.
 ALAT       =     2.9989400000

[...]

   2 primitive cells build up your supercell.

 Routine SETGRP: Setting up the symmetry group for a
 simple cubic supercell.

 Subroutine GETGRP returns: Found 48 space group operations
 (whereof 48 operations were pure point group operations)
 out of a pool of 48 trial point group operations.

The static configuration has the point symmetry O_h .

Analysis of symmetry for dynamics (positions and initial velocities):
 Subroutine PRICEL returns following result:

  LATTYP: Found a body centered cubic cell.
 ALAT       =     2.9989400000

  Lattice vectors:

 A1 = (   1.4994700000,   1.4994700000,  -1.4994700000)
 A2 = (  -1.4994700000,   1.4994700000,   1.4994700000)
 A3 = (   1.4994700000,  -1.4994700000,   1.4994700000)

   2 primitive cells build up your supercell.

 Routine SETGRP: Setting up the symmetry group for a
 simple cubic supercell.

 Subroutine GETGRP returns: Found 48 space group operations
 (whereof 48 operations were pure point group operations)
 out of a pool of 48 trial point group operations.

The dynamic configuration has the point symmetry O_h .

 Subroutine INISYM returns: Found 48 space group operations
 (whereof 48 operations are pure point group operations),
 and found     2 'primitive' translations

                                     Primitive cell

  volume of cell :      13.4857

  direct lattice vectors                    reciprocal lattice vectors
     1.499470000  1.499470000 -1.499470000     0.333451153  0.333451153  0.000000000
    -1.499470000  1.499470000  1.499470000    -0.000000000  0.333451153  0.333451153
     1.499470000 -1.499470000  1.499470000     0.333451153 -0.000000000  0.333451153

  length of vectors
     2.597158224  2.597158224  2.597158224     0.471571143  0.471571143  0.471571143

  position of ions in fractional coordinates (direct lattice)
     0.000000000  0.000000000  0.000000000

  ion indices of the primitive-cell ions
   primitive index   ion index
                 1           1

 KPOINTS: Automatic kpoint scheme

Automatic generation of k-mesh.
 Grid dimensions read from file:
 generate k-points for:   12   12   12

 Generating k-lattice:

  Cartesian coordinates                     Fractional coordinates (reciprocal lattice)
     0.027787596 -0.000000000  0.000000000     0.083333333  0.000000000  0.000000000
     0.000000000  0.027787596  0.000000000     0.000000000  0.083333333  0.000000000
    -0.000000000 -0.000000000  0.027787596     0.000000000  0.000000000  0.083333333

  Length of vectors
     0.027787596  0.027787596  0.027787596

  Shift w.r.t. Gamma in fractional coordinates (k-lattice)
     0.000000000  0.000000000  0.000000000

 Subroutine IBZKPT returns following result:

 Found     84 irreducible k-points:

 Following reciprocal coordinates:
            Coordinates               Weight
  0.000000  0.000000  0.000000      1.000000
  0.083333  0.000000  0.000000      6.000000
  0.166667  0.000000  0.000000      6.000000
  0.250000  0.000000  0.000000      6.000000
  0.333333  0.000000  0.000000      6.000000
  0.416667  0.000000  0.000000      6.000000
  0.500000  0.000000  0.000000      3.000000
  0.083333  0.083333  0.000000     12.000000
  0.166667  0.083333  0.000000     24.000000
  0.250000  0.083333  0.000000     24.000000
  0.333333  0.083333  0.000000     24.000000
  0.416667  0.083333  0.000000     24.000000
  0.500000  0.083333  0.000000     12.000000
  0.166667  0.166667  0.000000     12.000000
  0.250000  0.166667  0.000000     24.000000
  0.333333  0.166667  0.000000     24.000000
  0.416667  0.166667  0.000000     24.000000
  0.500000  0.166667  0.000000     12.000000
  0.250000  0.250000  0.000000     12.000000
  0.333333  0.250000  0.000000     24.000000
  0.416667  0.250000  0.000000     24.000000
  0.500000  0.250000  0.000000     12.000000
  0.333333  0.333333  0.000000     12.000000
  0.416667  0.333333  0.000000     24.000000
  0.500000  0.333333  0.000000     12.000000
  0.416667  0.416667  0.000000     12.000000
  0.500000  0.416667  0.000000     12.000000
  0.500000  0.500000  0.000000      3.000000
  0.083333  0.083333  0.083333      8.000000
  0.166667  0.083333  0.083333     24.000000
  0.250000  0.083333  0.083333     24.000000
  0.333333  0.083333  0.083333     24.000000
  0.416667  0.083333  0.083333     24.000000
  0.500000  0.083333  0.083333     12.000000
  0.166667  0.166667  0.083333     24.000000
  0.250000  0.166667  0.083333     48.000000
  0.333333  0.166667  0.083333     48.000000
  0.416667  0.166667  0.083333     48.000000
  0.500000  0.166667  0.083333     24.000000
  0.250000  0.250000  0.083333     24.000000
  0.333333  0.250000  0.083333     48.000000
  0.416667  0.250000  0.083333     48.000000
  0.500000  0.250000  0.083333     24.000000
  0.333333  0.333333  0.083333     24.000000
  0.416667  0.333333  0.083333     48.000000
  0.500000  0.333333  0.083333     24.000000
  0.416667  0.416667  0.083333     24.000000
  0.500000  0.416667  0.083333     24.000000
  0.500000  0.500000  0.083333      6.000000
  0.166667  0.166667  0.166667      8.000000
  0.250000  0.166667  0.166667     24.000000
  0.333333  0.166667  0.166667     24.000000
  0.416667  0.166667  0.166667     24.000000
  0.500000  0.166667  0.166667     12.000000
  0.250000  0.250000  0.166667     24.000000
  0.333333  0.250000  0.166667     48.000000
  0.416667  0.250000  0.166667     48.000000
  0.500000  0.250000  0.166667     24.000000
  0.333333  0.333333  0.166667     24.000000
  0.416667  0.333333  0.166667     48.000000
[...]
  0.416667  0.333333  0.250000     48.000000
  0.500000  0.333333  0.250000     24.000000
  0.416667  0.416667  0.250000     24.000000
  0.500000  0.416667  0.250000     24.000000
  0.500000  0.500000  0.250000      6.000000
  0.333333  0.333333  0.333333      8.000000
  0.416667  0.333333  0.333333     24.000000
  0.500000  0.333333  0.333333     12.000000
  0.416667  0.416667  0.333333     24.000000
  0.500000  0.416667  0.333333     24.000000
  0.500000  0.500000  0.333333      6.000000
  0.416667  0.416667  0.416667      8.000000
  0.500000  0.416667  0.416667     12.000000
  0.500000  0.500000  0.416667      6.000000
  0.500000  0.500000  0.500000      1.000000

 Following cartesian coordinates:
            Coordinates               Weight
  0.000000  0.000000  0.000000      1.000000
  0.027788 -0.000000  0.000000      6.000000
  0.055575 -0.000000  0.000000      6.000000
  0.083363 -0.000000  0.000000      6.000000
  0.111150 -0.000000  0.000000      6.000000
  0.138938 -0.000000  0.000000      6.000000
  0.166726 -0.000000  0.000000      3.000000
  0.027788  0.027788  0.000000     12.000000
  0.055575  0.027788  0.000000     24.000000
  0.083363  0.027788  0.000000     24.000000
  0.111150  0.027788  0.000000     24.000000
  0.138938  0.027788  0.000000     24.000000
  0.166726  0.027788  0.000000     12.000000
  0.055575  0.055575  0.000000     12.000000
  0.083363  0.055575  0.000000     24.000000
  0.111150  0.055575  0.000000     24.000000
  0.138938  0.055575  0.000000     24.000000
  0.166726  0.055575  0.000000     12.000000
  0.083363  0.083363  0.000000     12.000000
  0.111150  0.083363  0.000000     24.000000
  0.138938  0.083363  0.000000     24.000000
  0.166726  0.083363  0.000000     12.000000
  0.111150  0.111150  0.000000     12.000000
  0.138938  0.111150  0.000000     24.000000
  0.166726  0.111150  0.000000     12.000000
  0.138938  0.138938  0.000000     12.000000
  0.166726  0.138938  0.000000     12.000000
  0.166726  0.166726  0.000000      3.000000
  0.027788  0.027788  0.027788      8.000000
  0.055575  0.027788  0.027788     24.000000
  0.083363  0.027788  0.027788     24.000000
  0.111150  0.027788  0.027788     24.000000
  0.138938  0.027788  0.027788     24.000000
  0.166726  0.027788  0.027788     12.000000
  0.055575  0.055575  0.027788     24.000000
  0.083363  0.055575  0.027788     48.000000
  0.111150  0.055575  0.027788     48.000000
  0.138938  0.055575  0.027788     48.000000
  0.166726  0.055575  0.027788     24.000000
  0.083363  0.083363  0.027788     24.000000
  0.111150  0.083363  0.027788     48.000000
  0.138938  0.083363  0.027788     48.000000
  0.166726  0.083363  0.027788     24.000000
  0.111150  0.111150  0.027788     24.000000
  0.138938  0.111150  0.027788     48.000000
  0.166726  0.111150  0.027788     24.000000
  0.138938  0.138938  0.027788     24.000000
  0.166726  0.138938  0.027788     24.000000
  0.166726  0.166726  0.027788      6.000000
  0.055575  0.055575  0.055575      8.000000
  0.083363  0.055575  0.055575     24.000000
  0.111150  0.055575  0.055575     24.000000
  0.138938  0.055575  0.055575     24.000000
[...]
   0.16666667  0.16666667  0.08333333       0.014
   0.25000000  0.16666667  0.08333333       0.028
   0.33333333  0.16666667  0.08333333       0.028
   0.41666667  0.16666667  0.08333333       0.028
   0.50000000  0.16666667  0.08333333       0.014
   0.25000000  0.25000000  0.08333333       0.014
   0.33333333  0.25000000  0.08333333       0.028
   0.41666667  0.25000000  0.08333333       0.028
   0.50000000  0.25000000  0.08333333       0.014
   0.33333333  0.33333333  0.08333333       0.014
   0.41666667  0.33333333  0.08333333       0.028
   0.50000000  0.33333333  0.08333333       0.014
   0.41666667  0.41666667  0.08333333       0.014
   0.50000000  0.41666667  0.08333333       0.014
   0.50000000  0.50000000  0.08333333       0.003
   0.16666667  0.16666667  0.16666667       0.005
   0.25000000  0.16666667  0.16666667       0.014
   0.33333333  0.16666667  0.16666667       0.014
   0.41666667  0.16666667  0.16666667       0.014
   0.50000000  0.16666667  0.16666667       0.007
   0.25000000  0.25000000  0.16666667       0.014
   0.33333333  0.25000000  0.16666667       0.028
   0.41666667  0.25000000  0.16666667       0.028
   0.50000000  0.25000000  0.16666667       0.014
   0.33333333  0.33333333  0.16666667       0.014
   0.41666667  0.33333333  0.16666667       0.028
[...]
   0.41666667  0.33333333  0.25000000       0.028
   0.50000000  0.33333333  0.25000000       0.014
   0.41666667  0.41666667  0.25000000       0.014
   0.50000000  0.41666667  0.25000000       0.014
   0.50000000  0.50000000  0.25000000       0.003
   0.33333333  0.33333333  0.33333333       0.005
   0.41666667  0.33333333  0.33333333       0.014
   0.50000000  0.33333333  0.33333333       0.007
   0.41666667  0.41666667  0.33333333       0.014
   0.50000000  0.41666667  0.33333333       0.014
   0.50000000  0.50000000  0.33333333       0.003
   0.41666667  0.41666667  0.41666667       0.005
   0.50000000  0.41666667  0.41666667       0.007
   0.50000000  0.50000000  0.41666667       0.003
   0.50000000  0.50000000  0.50000000       0.001

 position of ions in fractional coordinates (direct lattice)
   0.00000000  0.00000000  0.00000000
   0.50000000  0.50000000  0.50000000

 position of ions in cartesian coordinates  (Angst):
   0.00000000  0.00000000  0.00000000
   1.49947000  1.49947000  1.49947000

 k-point     1 :   0.0000 0.0000 0.0000  plane waves:     389
 k-point     2 :   0.0833 0.0000 0.0000  plane waves:     393
 k-point     3 :   0.1667 0.0000 0.0000  plane waves:     397
 k-point     4 :   0.2500 0.0000 0.0000  plane waves:     389
 k-point     5 :   0.3333 0.0000 0.0000  plane waves:     401
 k-point     6 :   0.4167 0.0000 0.0000  plane waves:     393
 k-point     7 :   0.5000 0.0000 0.0000  plane waves:     402
 k-point     8 :   0.0833 0.0833 0.0000  plane waves:     391
 k-point     9 :   0.1667 0.0833 0.0000  plane waves:     394
 k-point    10 :   0.2500 0.0833 0.0000  plane waves:     398
 k-point    11 :   0.3333 0.0833 0.0000  plane waves:     394
 k-point    12 :   0.4167 0.0833 0.0000  plane waves:     387
 k-point    13 :   0.5000 0.0833 0.0000  plane waves:     386
 k-point    14 :   0.1667 0.1667 0.0000  plane waves:     401
 k-point    15 :   0.2500 0.1667 0.0000  plane waves:     397
 k-point    16 :   0.3333 0.1667 0.0000  plane waves:     393
 k-point    17 :   0.4167 0.1667 0.0000  plane waves:     385
 k-point    18 :   0.5000 0.1667 0.0000  plane waves:     384
 k-point    19 :   0.2500 0.2500 0.0000  plane waves:     392
 k-point    20 :   0.3333 0.2500 0.0000  plane waves:     390
 k-point    21 :   0.4167 0.2500 0.0000  plane waves:     384
 k-point    22 :   0.5000 0.2500 0.0000  plane waves:     386
 k-point    23 :   0.3333 0.3333 0.0000  plane waves:     386
 k-point    24 :   0.4167 0.3333 0.0000  plane waves:     386
 k-point    25 :   0.5000 0.3333 0.0000  plane waves:     384
 k-point    26 :   0.4167 0.4167 0.0000  plane waves:     374
 k-point    27 :   0.5000 0.4167 0.0000  plane waves:     380
 k-point    28 :   0.5000 0.5000 0.0000  plane waves:     372
 k-point    29 :   0.0833 0.0833 0.0833  plane waves:     395
 k-point    30 :   0.1667 0.0833 0.0833  plane waves:     400
 k-point    31 :   0.2500 0.0833 0.0833  plane waves:     397
 k-point    32 :   0.3333 0.0833 0.0833  plane waves:     392
 k-point    33 :   0.4167 0.0833 0.0833  plane waves:     388
 k-point    34 :   0.5000 0.0833 0.0833  plane waves:     390
 k-point    35 :   0.1667 0.1667 0.0833  plane waves:     397
 k-point    36 :   0.2500 0.1667 0.0833  plane waves:     396
 k-point    37 :   0.3333 0.1667 0.0833  plane waves:     396
 k-point    38 :   0.4167 0.1667 0.0833  plane waves:     386
 k-point    39 :   0.5000 0.1667 0.0833  plane waves:     386
 k-point    40 :   0.2500 0.2500 0.0833  plane waves:     396
 k-point    41 :   0.3333 0.2500 0.0833  plane waves:     389
 k-point    42 :   0.4167 0.2500 0.0833  plane waves:     388
 k-point    43 :   0.5000 0.2500 0.0833  plane waves:     384
 k-point    44 :   0.3333 0.3333 0.0833  plane waves:     388
 k-point    45 :   0.4167 0.3333 0.0833  plane waves:     385
 k-point    46 :   0.5000 0.3333 0.0833  plane waves:     382
 k-point    47 :   0.4167 0.4167 0.0833  plane waves:     381
 k-point    48 :   0.5000 0.4167 0.0833  plane waves:     382
 k-point    49 :   0.5000 0.5000 0.0833  plane waves:     376
 k-point    50 :   0.1667 0.1667 0.1667  plane waves:     392
 k-point    51 :   0.2500 0.1667 0.1667  plane waves:     395
 k-point    52 :   0.3333 0.1667 0.1667  plane waves:     387
 k-point    53 :   0.4167 0.1667 0.1667  plane waves:     383
 k-point    54 :   0.5000 0.1667 0.1667  plane waves:     390
 k-point    55 :   0.2500 0.2500 0.1667  plane waves:     396
 k-point    56 :   0.3333 0.2500 0.1667  plane waves:     387
 k-point    57 :   0.4167 0.2500 0.1667  plane waves:     383
 k-point    58 :   0.5000 0.2500 0.1667  plane waves:     384
 k-point    59 :   0.3333 0.3333 0.1667  plane waves:     385
 k-point    60 :   0.4167 0.3333 0.1667  plane waves:     389
[...]
 k-point    70 :   0.4167 0.3333 0.2500  plane waves:     382
 k-point    71 :   0.5000 0.3333 0.2500  plane waves:     386
 k-point    72 :   0.4167 0.4167 0.2500  plane waves:     389
 k-point    73 :   0.5000 0.4167 0.2500  plane waves:     390
 k-point    74 :   0.5000 0.5000 0.2500  plane waves:     380
 k-point    75 :   0.3333 0.3333 0.3333  plane waves:     377
 k-point    76 :   0.4167 0.3333 0.3333  plane waves:     383
 k-point    77 :   0.5000 0.3333 0.3333  plane waves:     390
 k-point    78 :   0.4167 0.4167 0.3333  plane waves:     394
 k-point    79 :   0.5000 0.4167 0.3333  plane waves:     386
 k-point    80 :   0.5000 0.5000 0.3333  plane waves:     388
 k-point    81 :   0.4167 0.4167 0.4167  plane waves:     390
 k-point    82 :   0.5000 0.4167 0.4167  plane waves:     384
 k-point    83 :   0.5000 0.5000 0.4167  plane waves:     380
 k-point    84 :   0.5000 0.5000 0.5000  plane waves:     360

 maximum and minimum number of plane-waves per node :       402      360

 maximum number of plane-waves:       402
 maximum index in each direction:
   IXMAX=    4   IYMAX=    4   IZMAX=    4
   IXMIN=   -5   IYMIN=   -4   IZMIN=   -4

 serial   3D FFT for wavefunctions
 parallel 3D FFT for charge:
    minimum data exchange during FFTs selected (reduces bandwidth)

 Broyden mixing: mesh for mixing (old mesh)
   NGX =  9   NGY =  9   NGZ =  9
  (NGX  = 28   NGY  = 28   NGZ  = 28)
  gives a total of    729 points

 charge density for first step will be calculated from the start-wavefunctions

 Maximum index for augmentation-charges          277 (set IRDMAX)

 initial charge from wavefunction
 First call to EWALD:  gamma=   0.591
 Maximum number of real-space cells 3x 3x 3
 Maximum number of reciprocal cells 3x 3x 3

--------------------------------------- Ionic step        1  -------------------------------------------

--------------------------------------- Iteration      1(   1)  ---------------------------------------

 eigenvalue-minimisations  :  4512
 total energy-change (2. order) :-0.1798861E+02  (-0.1827385E-05)
 number of electron      26.0000349 magnetization
 augmentation part        9.4516344 magnetization

 Broyden mixing:
  rms(total) = 0.11810E-02    rms(broyden)= 0.11806E-02
  rms(prec ) = 0.18894E-02
  weight for this iteration     100.00

 Free energy of the ion-electron system (eV)
  alpha Z        PSCENC =       181.20010233
  Ewald energy   TEWEN  =     -2953.14600272
  -Hartree energ DENC   =      -785.79646639
  -exchange      EXHF   =         0.00000000
  -V(xc)+E(xc)   XCENC  =       139.81096127
  PAW double counting   =      3868.36197158    -3905.41379080
  entropy T*S    EENTRO =        -0.00525203
  eigenvalues    EBANDS =      -467.10225368
  atomic energy  EATOM  =      3904.10212284
  Solvation  Ediel_sol  =         0.00000000
  free energy    TOTEN  =       -17.98860760 eV

  energy without entropy =      -17.98335558  energy(sigma->0) =      -17.98598159

--------------------------------------- Iteration      1(   2)  ---------------------------------------

 eigenvalue-minimisations  :  4080
 total energy-change (2. order) : 0.6301293E-06  (-0.4539218E-06)
 number of electron      26.0000349 magnetization
 augmentation part        9.4516344 magnetization

 Free energy of the ion-electron system (eV)
  alpha Z        PSCENC =       181.20010233
  Ewald energy   TEWEN  =     -2953.14600272
  -Hartree energ DENC   =      -785.82745978
  -exchange      EXHF   =         0.00000000
  -V(xc)+E(xc)   XCENC  =       139.81252040
  PAW double counting   =      3868.11688730    -3905.16861846
  entropy T*S    EENTRO =        -0.00524171
  eigenvalues    EBANDS =      -467.07291717
  atomic energy  EATOM  =      3904.10212284
  Solvation  Ediel_sol  =         0.00000000
  free energy    TOTEN  =       -17.98860697 eV

  energy without entropy =      -17.98336527  energy(sigma->0) =      -17.98598612

 average (electrostatic) potential at core
  the test charge radii are     0.9956
  (the norm of the test charge is              1.0000)
       1 -70.1742       2 -70.1742

 E-fermi :   9.6721     XC(G=0): -12.9024     alpha+bet :-18.6665

 val. band max:        9.6596482116   @ k =   0.3333   0.1667   0.1667
 cond. band min:       9.6724873631   @ k =   0.2500   0.2500   0.0000
 fundamental gap:      0.0128391514
 Fermi energy:         9.6721390469

 k-point     1 :       0.0000    0.0000    0.0000
  band No.  band energies     occupation
      1     -54.0200      2.00000
      2     -53.6872      2.00000
      3     -27.9496      2.00000
      4     -27.9496      2.00000
      5     -27.9496      2.00000
      6     -27.3370      2.00000
      7     -27.3370      2.00000
      8     -27.3370      2.00000
      9       3.1050      2.00000
     10       6.7027      2.00000
     11       6.7027      2.00000
     12      10.1057      0.00000
     13      10.1057      0.00000
     14      10.1057      0.00000
     15      12.0999      0.00000
     16      12.0999      0.00000
     17      13.4081      0.00000
     18      13.4081      0.00000
     19      13.4081      0.00000
     20      19.8859      0.00000
     21      19.8859      0.00000
     22      19.8859      0.00000
     23      26.5983      0.00000
     24      26.5983      0.00000
     25      30.1725      0.00000
     26      30.1725      0.00000
     27      30.1725      0.00000
     28      31.5232      0.00000
     29      37.2084      0.00000
     30      37.2084      0.00000
     31      41.4683      0.00000
     32      41.4683      0.00000
     33      41.4683      0.00000
     34      41.9715      0.00000
     35      42.1810      0.00000
     36      42.1810      0.00000
     37      42.1810      0.00000
     38      53.0073      0.00000
     39      53.0073      0.00000
     40      53.0073      0.00000
     41      54.7328      0.00000
     42      54.7328      0.00000
     43      54.7328      0.00000
     44      55.6139      0.00000
     45      63.7895      0.00000
     46      64.9430      0.00000
     47      64.9430      0.00000
     48      64.9430      0.00000

[...]

 k-point    84 :       0.5000    0.5000    0.5000
  band No.  band energies     occupation
      1     -53.8066      2.00000
      2     -53.8066      2.00000
      3     -27.7809      2.00000
      4     -27.7809      2.00000
      5     -27.7809      2.00000
      6     -27.7809      2.00000
      7     -27.7809      2.00000
      8     -27.7809      2.00000
      9       8.5786      2.00000
     10       8.5786      2.00000
     11       8.5786      2.00000
     12       8.5786      2.00000
     13       8.5786      2.00000
     14       8.5786      2.00000
     15      12.5228      0.00000
     16      12.5228      0.00000
     17      12.5228      0.00000
     18      12.5228      0.00000
     19      20.0794      0.00000
     20      20.0794      0.00000
     21      20.0794      0.00000
     22      20.0794      0.00000
     23      20.0794      0.00000
     24      20.0794      0.00000
     25      21.5851      0.00000
     26      21.5851      0.00000
     27      42.5501      0.00000
     28      42.5501      0.00000
     29      42.5501      0.00000
     30      42.5501      0.00000
     31      42.5501      0.00000
     32      42.5501      0.00000
     33      43.8473      0.00000
     34      43.8473      0.00000
     35      43.8473      0.00000
     36      43.8473      0.00000
     37      43.8473      0.00000
     38      43.8473      0.00000
     39      53.6225      0.00000
     40      53.6225      0.00000
     41      53.6225      0.00000
     42      53.6225      0.00000
     43      58.2677      0.00000
     44      58.2677      0.00000
     45      58.2677      0.00000
     46      58.2677      0.00000
     47      58.2677      0.00000
     48      58.2677      0.00000

 soft charge-density along one line, spin component           1
         0         1         2         3         4         5         6         7         8         9
 total charge-density along one line

------------------------ aborting loop because EDIFF is reached ----------------------------------------

  FORCE on cell =-STRESS in cart. coord.  units (eV):
  Direction    XX          YY          ZZ          XY          YZ          ZX
  Alpha Z   181.20010   181.20010   181.20010
  Ewald    -984.38193  -984.38193  -984.38193    -0.00000     0.00000     0.00000
  Hartree   261.94142   261.94142   261.94142    -0.00000    -0.00000    -0.00000
  E(xc)    -145.15202  -145.15202  -145.15202     0.00000    -0.00000    -0.00000
  Local     234.42960   234.42960   234.42960    -0.00000    -0.00000    -0.00000
  n-local   -80.42001   -73.63512   -66.84864     1.40307    -0.67879     0.23576
  augment   147.44810   147.44810   147.44810     0.00000     0.00000    -0.00000
  Kinetic   372.16648   375.93282   386.01532     1.40306    -2.41347     0.33755
  Fock        0.00000     0.00000     0.00000     0.00000     0.00000     0.00000
  Total      -0.11112    -0.11112    -0.11112    -0.00000    -0.00000    -0.00000
  in kB      -6.60070    -6.60070    -6.60070    -0.00000    -0.00000    -0.00000

 VOLUME and BASIS-vectors are now :
  energy-cutoff  :      342.77
  volume of cell :       26.97
      direct lattice vectors                 reciprocal lattice vectors
     2.998940000  0.000000000  0.000000000     0.333451153 -0.000000000  0.000000000
     0.000000000  2.998940000  0.000000000     0.000000000  0.333451153  0.000000000
     0.000000000  0.000000000  2.998940000    -0.000000000 -0.000000000  0.333451153

  length of vectors
     2.998940000  2.998940000  2.998940000     0.333451153  0.333451153  0.333451153

 FORCES acting on ions
    electron-ion (+dipol)            ewald-force                    non-local-force                 convergence-correction
   -.490E-13 -.512E-13 -.508E-13   -.738E-14 -.698E-14 -.437E-14   0.539E-26 0.198E-25 0.238E-25   -.443E-13 -.185E-13 -.246E-13
   0.412E-12 -.219E-11 -.455E-13   0.824E-14 0.842E-14 0.272E-14   0.372E-26 0.341E-25 -.136E-25   -.458E-14 -.829E-14 -.230E-13
   0.363E-12 -.224E-11 -.963E-13   0.866E-15 0.143E-14 -.165E-14   0.911E-26 0.539E-25 0.102E-25   -.489E-13 -.268E-13 -.476E-13

 POSITION                                       TOTAL-FORCE (eV/Angst)
      0.00000      0.00000      0.00000        -0.000000      0.000000      0.000000
      1.49947      1.49947      1.49947         0.000000     -0.000000     -0.000000
    total drift:                                0.000000     -0.000000     -0.000000

  FREE ENERGIE OF THE ION-ELECTRON SYSTEM (eV)
  free  energy   TOTEN  =       -17.98860697 eV

  energy  without entropy=      -17.98336527  energy(sigma->0) =      -17.98598612

 writing wavefunctions