 vasp.6.4.3 19Mar24 (build Jun 26 2024 13:02:28) complex

 executed on             LinuxIFC date 2025.08.08  19:00:44

 INCAR:
   ENCUT = 414.1982
   IBRION = -1
   ISMEAR = 0
   ISYM = 2
   LCHARG = True
   LWAVE = True
   SIGMA = 0.05
   SYSTEM = B

 POTCAR:  PAW_PBE B 06Sep2000
|           W    W    AA    RRRRR   N    N  II  N    N   GGGG   !!!           |
|           W    W   A  A   R    R  NN   N  II  NN   N  G    G  !!!           |
|           W    W  A    A  R    R  N N  N  II  N N  N  G       !!!           |
|           W WW W  AAAAAA  RRRRR   N  N N  II  N  N N  G  GGG   !            |
|           WW  WW  A    A  R   R   N   NN  II  N   NN  G    G                |
|           W    W  A    A  R    R  N    N  II  N    N   GGGG   !!!           |
|     For optimal performance we recommend to set                             |
|       NCORE = 2 up to number-of-cores-per-socket                            |
|     This setting can greatly improve the performance of VASP for DFT.       |
|     The default, NCORE=1 might be grossly inefficient on modern             |
|     multi-core architectures or massively parallel machines. Do your        |
|     Unfortunately you need to use the default for GW and RPA                |
|     calculations (for HF NCORE is supported but not extensively tested      |
|     yet).                                                                   |

 POTCAR:  PAW_PBE B 06Sep2000
   VRHFIN =B: s2p1

   TITEL  = PAW_PBE B 06Sep2000
   POMASS =   10.811; ZVAL   =    3.000    mass and valenz
   ENMAX  =  318.614; ENMIN  =  238.960 eV

PAW_PBE B 06Sep2000                     :

 POSCAR: B12
  positions in direct lattice

 exchange-correlation table for PE
   RHO(1)=    0.500       N(1)  =     2000
   RHO(2)=  100.500       N(2)  =     4000

 ion  position               nearest neighbor table
   1  0.990  0.010  0.675-   2 1.67   3 1.75   5 1.75   7 1.79  12 1.80  10 1.80
   2  0.010  0.990  0.325-   1 1.67   4 1.75   6 1.75   8 1.79  11 1.80   9 1.80
   3  0.990  0.654  0.675-   4 1.67   1 1.75   5 1.75   9 1.79   8 1.80  12 1.80
   4  0.010  0.346  0.325-   3 1.67   2 1.75   6 1.75  10 1.79   7 1.80  11 1.80
   5  0.346  0.010  0.675-   6 1.67   1 1.75   3 1.75  11 1.79   8 1.80  10 1.80
   6  0.654  0.990  0.325-   5 1.67   2 1.75   4 1.75  12 1.79   7 1.80   9 1.80
   7  0.779  0.221  0.073-  10 1.78  12 1.78   1 1.79   6 1.80   4 1.80  11 2.01   9 2.01
   8  0.221  0.779  0.927-   9 1.78  11 1.78   2 1.79   5 1.80   3 1.80  10 2.01  12 2.01
   9  0.779  0.630  0.073-   8 1.78  12 1.78   3 1.79   2 1.80   6 1.80   7 2.01  11 2.01
  10  0.221  0.370  0.927-   7 1.78  11 1.78   4 1.79   1 1.80   5 1.80   8 2.01  12 2.01
  11  0.370  0.221  0.073-   8 1.78  10 1.78   5 1.79   2 1.80   4 1.80   7 2.01   9 2.01
  12  0.630  0.779  0.927-   7 1.78   9 1.78   6 1.79   1 1.80   3 1.80   8 2.01  10 2.01

  LATTYP: Found a trigonal (rhomboedric) cell.
 ALAT       =     5.0509823375
 COS(alpha) =     0.5293160127

  Lattice vectors:

 A1 = (  -4.2853784336,   0.0000000000,   2.6735658313)
 A2 = (   0.0000000000,   0.0000000000,   5.0509800000)
 A3 = (  -1.4832260892,   4.0205109983,   2.6735658313)

Analysis of symmetry for initial positions (statically):
 Subroutine PRICEL returns:
 Original cell was already a primitive cell.

 Routine SETGRP: Setting up the symmetry group for a
 trigonal (rhombohedral) supercell.

 Subroutine GETGRP returns: Found  4 space group operations
 (whereof  4 operations were pure point group operations)
 out of a pool of 12 trial point group operations.

The static configuration has the point symmetry C_2h.

Analysis of symmetry for dynamics (positions and initial velocities):
 Subroutine PRICEL returns:
 Original cell was already a primitive cell.

 Routine SETGRP: Setting up the symmetry group for a
 trigonal (rhombohedral) supercell.

 Subroutine GETGRP returns: Found  4 space group operations
 (whereof  4 operations were pure point group operations)
 out of a pool of 12 trial point group operations.

The dynamic configuration has the point symmetry C_2h.

 Subroutine INISYM returns: Found  4 space group operations
 (whereof  4 operations are pure point group operations),
 and found     1 'primitive' translations

                                     Primitive cell

  volume of cell :      87.0254

  direct lattice vectors                    reciprocal lattice vectors
     4.285378434  0.000000000  2.377414169     0.233351620  0.086086871  0.000000000
    -1.483226089  4.020510998 -2.377414169     0.000000000  0.248724603  0.000000000
     0.000000000  0.000000000  5.050980000    -0.109834814  0.076550936  0.197981382

  length of vectors
     4.900670000  4.900670000  5.050980000     0.248724603  0.248724603  0.238998660

  position of ions in fractional coordinates (direct lattice)
     0.989690000  0.010310000  0.674650000
     0.010310000  0.989690000  0.325350000
     0.989690000  0.654040000  0.674650000
     0.010310000  0.345960000  0.325350000
     0.345960000  0.010310000  0.674650000
     0.654040000  0.989690000  0.325350000
     0.778850000  0.221150000  0.072740000
     0.221150000  0.778850000  0.927260000
     0.778850000  0.630430000  0.072740000
     0.221150000  0.369570000  0.927260000
     0.369570000  0.221150000  0.072740000
     0.630430000  0.778850000  0.927260000

  ion indices of the primitive-cell ions
   primitive index   ion index
                 1           1
                 2           2
                 3           3
                 4           4
                 5           5
                 6           6
                 7           7
                 8           8
                 9           9
                10          10
                11          11
                12          12

 KPOINTS: Automatic kpoint scheme

Automatic generation of k-mesh.
 Grid dimensions read from file:
 generate k-points for:    8    8    8

 Generating k-lattice:

  Cartesian coordinates                     Fractional coordinates (reciprocal lattice)
     0.029168953  0.010760859  0.000000000     0.125000000 -0.000000000  0.000000000
     0.000000000  0.031090575  0.000000000     0.000000000  0.125000000  0.000000000
    -0.013729352  0.009568867  0.024747673    -0.000000000  0.000000000  0.125000000

  Length of vectors
     0.031090575  0.031090575  0.029874833

  Shift w.r.t. Gamma in fractional coordinates (k-lattice)
     0.000000000  0.000000000  0.000000000

 Subroutine IBZKPT returns following result:

 Found    150 irreducible k-points:

 Following reciprocal coordinates:
            Coordinates               Weight
  0.000000  0.000000  0.000000      1.000000
  0.125000 -0.000000  0.000000      4.000000
 -0.125000  0.125000 -0.125000      2.000000
  0.250000 -0.000000  0.000000      4.000000
 -0.250000  0.250000 -0.250000      2.000000
  0.375000 -0.000000  0.000000      4.000000
 -0.375000  0.375000 -0.375000      2.000000
  0.500000 -0.000000  0.000000      2.000000
  0.500000  0.500000  0.500000      1.000000
  0.125000  0.125000  0.000000      2.000000
 -0.250000  0.125000 -0.125000      4.000000
  0.250000  0.125000  0.000000      4.000000
 -0.375000  0.125000 -0.125000      4.000000
 -0.375000  0.250000 -0.250000      4.000000
  0.375000  0.125000  0.000000      4.000000
  0.500000  0.125000 -0.125000      4.000000
  0.500000  0.375000 -0.375000      4.000000
  0.500000  0.125000  0.000000      4.000000
  0.375000  0.125000 -0.125000      4.000000
  0.375000  0.500000  0.500000      4.000000
 -0.375000  0.125000  0.000000      4.000000
  0.250000  0.125000 -0.125000      4.000000
  0.250000 -0.375000  0.375000      4.000000
 -0.250000  0.125000  0.000000      4.000000
  0.125000  0.125000 -0.125000      4.000000
  0.125000 -0.250000  0.250000      4.000000
 -0.125000  0.125000  0.000000      2.000000
 -0.000000  0.125000 -0.125000      4.000000
  0.250000  0.250000  0.000000      2.000000
  0.500000  0.250000 -0.250000      4.000000
  0.375000  0.250000  0.000000      4.000000
  0.375000  0.250000 -0.250000      4.000000
  0.375000  0.375000 -0.375000      4.000000
  0.500000  0.250000  0.000000      4.000000
  0.250000  0.250000 -0.250000      4.000000
  0.250000  0.500000  0.500000      4.000000
 -0.375000  0.250000  0.000000      4.000000
  0.125000  0.250000 -0.250000      4.000000
  0.125000 -0.375000  0.375000      4.000000
 -0.250000  0.250000  0.000000      2.000000
 -0.000000  0.250000 -0.250000      4.000000
  0.375000  0.375000  0.000000      2.000000
  0.250000  0.375000 -0.375000      4.000000
  0.500000  0.375000  0.000000      4.000000
  0.125000  0.375000 -0.375000      4.000000
  0.125000  0.500000  0.500000      4.000000
 -0.375000  0.375000  0.000000      2.000000
 -0.000000  0.375000 -0.375000      4.000000
  0.500000  0.500000  0.000000      1.000000
  0.000000  0.500000  0.500000      2.000000
  0.000000 -0.000000  0.125000      2.000000
  0.250000 -0.000000  0.125000      4.000000
 -0.250000  0.250000 -0.125000      2.000000
  0.375000  0.000000  0.125000      4.000000
 -0.375000  0.375000 -0.250000      2.000000
  0.500000 -0.000000  0.125000      4.000000
  0.500000  0.500000 -0.375000      2.000000
 -0.375000  0.000000  0.125000      4.000000
  0.375000 -0.375000  0.500000      2.000000
 -0.250000  0.000000  0.125000      4.000000
[...]
  0.125000 -0.375000 -0.375000      4.000000
 -0.250000  0.250000  0.250000      2.000000
  0.000000  0.250000  0.500000      4.000000
 -0.375000  0.375000  0.250000      2.000000
  0.000000  0.375000  0.375000      4.000000
  0.000000 -0.000000  0.375000      2.000000
 -0.250000 -0.000000  0.375000      4.000000
  0.250000 -0.250000 -0.375000      2.000000
 -0.125000 -0.000000  0.375000      4.000000
  0.125000 -0.125000  0.500000      2.000000
 -0.250000  0.125000  0.375000      4.000000
  0.125000  0.125000  0.500000      2.000000
 -0.125000  0.125000  0.375000      2.000000
  0.000000  0.125000  0.500000      4.000000
  0.000000 -0.000000  0.500000      1.000000

 Following cartesian coordinates:
            Coordinates               Weight
  0.000000  0.000000  0.000000      1.000000
  0.029169  0.010761  0.000000      4.000000
 -0.015440  0.010761 -0.024748      2.000000
  0.058338  0.021522  0.000000      4.000000
 -0.030879  0.021522 -0.049495      2.000000
  0.087507  0.032283  0.000000      4.000000
 -0.046319  0.032283 -0.074243      2.000000
  0.116676  0.043043  0.000000      2.000000
  0.061758  0.205681  0.098991      1.000000
  0.029169  0.041851  0.000000      2.000000
 -0.044609 -0.000000 -0.024748      4.000000
  0.058338  0.052612  0.000000      4.000000
 -0.073778 -0.010761 -0.024748      4.000000
 -0.060048  0.010761 -0.049495      4.000000
  0.087507  0.063373  0.000000      4.000000
  0.130405  0.064565 -0.024748      4.000000
  0.157864  0.107609 -0.074243      4.000000
  0.116676  0.074134  0.000000      4.000000
  0.101236  0.053804 -0.024748      4.000000
  0.032589  0.194920  0.098991      4.000000
 -0.087507 -0.001192  0.000000      4.000000
  0.072067  0.043043 -0.024748      4.000000
  0.017150 -0.043043  0.074243      4.000000
 -0.058338  0.009569  0.000000      4.000000
[...]

 k-point     1 :   0.0000 0.0000 0.0000  plane waves:    1687
 k-point     2 :   0.1250-0.0000 0.0000  plane waves:    1669
 k-point     3 :  -0.1250 0.1250-0.1250  plane waves:    1669
 k-point     4 :   0.2500-0.0000 0.0000  plane waves:    1674
 k-point     5 :  -0.2500 0.2500-0.2500  plane waves:    1674
 k-point     6 :   0.3750-0.0000 0.0000  plane waves:    1669
 k-point     7 :  -0.3750 0.3750-0.3750  plane waves:    1669
 k-point     8 :   0.5000-0.0000 0.0000  plane waves:    1666
 k-point     9 :   0.5000 0.5000 0.5000  plane waves:    1666
 k-point    10 :   0.1250 0.1250 0.0000  plane waves:    1668
 k-point    11 :  -0.2500 0.1250-0.1250  plane waves:    1668
 k-point    12 :   0.2500 0.1250 0.0000  plane waves:    1668
 k-point    13 :  -0.3750 0.1250-0.1250  plane waves:    1668
 k-point    14 :  -0.3750 0.2500-0.2500  plane waves:    1668
 k-point    15 :   0.3750 0.1250 0.0000  plane waves:    1666
 k-point    16 :   0.5000 0.1250-0.1250  plane waves:    1666
 k-point    17 :   0.5000 0.3750-0.3750  plane waves:    1666
 k-point    18 :   0.5000 0.1250 0.0000  plane waves:    1670
 k-point    19 :   0.3750 0.1250-0.1250  plane waves:    1670
 k-point    20 :   0.3750 0.5000 0.5000  plane waves:    1670
 k-point    21 :  -0.3750 0.1250 0.0000  plane waves:    1662
 k-point    22 :   0.2500 0.1250-0.1250  plane waves:    1662
 k-point    23 :   0.2500-0.3750 0.3750  plane waves:    1662
 k-point    24 :  -0.2500 0.1250 0.0000  plane waves:    1668
 k-point    25 :   0.1250 0.1250-0.1250  plane waves:    1668
 k-point    26 :   0.1250-0.2500 0.2500  plane waves:    1668
 k-point    27 :  -0.1250 0.1250 0.0000  plane waves:    1673
 k-point    28 :  -0.0000 0.1250-0.1250  plane waves:    1673
 k-point    29 :   0.2500 0.2500 0.0000  plane waves:    1666
 k-point    30 :   0.5000 0.2500-0.2500  plane waves:    1666
 k-point    31 :   0.3750 0.2500 0.0000  plane waves:    1660
 k-point    32 :   0.3750 0.2500-0.2500  plane waves:    1660
 k-point    33 :   0.3750 0.3750-0.3750  plane waves:    1660
 k-point    34 :   0.5000 0.2500 0.0000  plane waves:    1668
 k-point    35 :   0.2500 0.2500-0.2500  plane waves:    1668
 k-point    36 :   0.2500 0.5000 0.5000  plane waves:    1668
 k-point    37 :  -0.3750 0.2500 0.0000  plane waves:    1669
 k-point    38 :   0.1250 0.2500-0.2500  plane waves:    1669
 k-point    39 :   0.1250-0.3750 0.3750  plane waves:    1669
 k-point    40 :  -0.2500 0.2500 0.0000  plane waves:    1673
 k-point    41 :  -0.0000 0.2500-0.2500  plane waves:    1673
 k-point    42 :   0.3750 0.3750 0.0000  plane waves:    1662
 k-point    43 :   0.2500 0.3750-0.3750  plane waves:    1662
 k-point    44 :   0.5000 0.3750 0.0000  plane waves:    1668
 k-point    45 :   0.1250 0.3750-0.3750  plane waves:    1668
 k-point    46 :   0.1250 0.5000 0.5000  plane waves:    1668
 k-point    47 :  -0.3750 0.3750 0.0000  plane waves:    1667
 k-point    48 :  -0.0000 0.3750-0.3750  plane waves:    1667
 k-point    49 :   0.5000 0.5000 0.0000  plane waves:    1668
 k-point    50 :   0.0000 0.5000 0.5000  plane waves:    1668
 k-point    51 :   0.0000-0.0000 0.1250  plane waves:    1673
 k-point    52 :   0.2500-0.0000 0.1250  plane waves:    1674
 k-point    53 :  -0.2500 0.2500-0.1250  plane waves:    1674
 k-point    54 :   0.3750 0.0000 0.1250  plane waves:    1679
 k-point    55 :  -0.3750 0.3750-0.2500  plane waves:    1679
 k-point    56 :   0.5000-0.0000 0.1250  plane waves:    1667
 k-point    57 :   0.5000 0.5000-0.3750  plane waves:    1667
 k-point    58 :  -0.3750 0.0000 0.1250  plane waves:    1670
 k-point    59 :   0.3750-0.3750 0.5000  plane waves:    1670
 k-point    60 :  -0.2500 0.0000 0.1250  plane waves:    1652
[...]
 k-point   136 :   0.1250-0.3750-0.3750  plane waves:    1659
 k-point   137 :  -0.2500 0.2500 0.2500  plane waves:    1672
 k-point   138 :   0.0000 0.2500 0.5000  plane waves:    1672
 k-point   139 :  -0.3750 0.3750 0.2500  plane waves:    1661
 k-point   140 :   0.0000 0.3750 0.3750  plane waves:    1661
 k-point   141 :   0.0000-0.0000 0.3750  plane waves:    1652
 k-point   142 :  -0.2500-0.0000 0.3750  plane waves:    1654
 k-point   143 :   0.2500-0.2500-0.3750  plane waves:    1654
 k-point   144 :  -0.1250-0.0000 0.3750  plane waves:    1650
 k-point   145 :   0.1250-0.1250 0.5000  plane waves:    1650
 k-point   146 :  -0.2500 0.1250 0.3750  plane waves:    1658
 k-point   147 :   0.1250 0.1250 0.5000  plane waves:    1658
 k-point   148 :  -0.1250 0.1250 0.3750  plane waves:    1646
 k-point   149 :   0.0000 0.1250 0.5000  plane waves:    1646
 k-point   150 :   0.0000-0.0000 0.5000  plane waves:    1652

 maximum and minimum number of plane-waves per node :      1687     1646

 maximum number of plane-waves:      1687
 maximum index in each direction:
   IXMAX=    8   IYMAX=    8   IZMAX=    8
   IXMIN=   -8   IYMIN=   -8   IZMIN=   -8

 serial   3D FFT for wavefunctions
 parallel 3D FFT for charge:
    minimum data exchange during FFTs selected (reduces bandwidth)

 Broyden mixing: mesh for mixing (old mesh)
   NGX = 17   NGY = 17   NGZ = 17
  (NGX  = 48   NGY  = 48   NGZ  = 56)
  gives a total of   4913 points

 charge density for first step will be calculated from the start-wavefunctions

 Maximum index for augmentation-charges          232 (set IRDMAX)

 initial charge from wavefunction
 First call to EWALD:  gamma=   0.400
 Maximum number of real-space cells 3x 3x 3
 Maximum number of reciprocal cells 3x 3x 3

--------------------------------------- Ionic step        1  -------------------------------------------

--------------------------------------- Iteration      1(   1)  ---------------------------------------

 eigenvalue-minimisations  : 19392
 total energy-change (2. order) :-0.8044147E+02  (-0.3068519E-05)
 number of electron      36.0000002 magnetization
 augmentation part       -0.0916504 magnetization

 Broyden mixing:
  rms(total) = 0.26436E-03    rms(broyden)= 0.26436E-03
  rms(prec ) = 0.77801E-03
  weight for this iteration     100.00

 Free energy of the ion-electron system (eV)
  alpha Z        PSCENC =       113.83449793
  Ewald energy   TEWEN  =     -1014.33615643
  -Hartree energ DENC   =      -111.58627264
  -exchange      EXHF   =         0.00000000
  -V(xc)+E(xc)   XCENC  =        89.48458372
  PAW double counting   =      3270.60089684    -3261.31835710
  entropy T*S    EENTRO =        -0.00000000
  eigenvalues    EBANDS =       -21.14252997
  atomic energy  EATOM  =       854.02186985
  Solvation  Ediel_sol  =         0.00000000
  free energy    TOTEN  =       -80.44146780 eV

  energy without entropy =      -80.44146780  energy(sigma->0) =      -80.44146780

--------------------------------------- Iteration      1(   2)  ---------------------------------------

 eigenvalue-minimisations  :  7872
 total energy-change (2. order) : 0.1785857E-06  (-0.1160352E-06)
 number of electron      36.0000002 magnetization
 augmentation part       -0.0916504 magnetization

 Free energy of the ion-electron system (eV)
  alpha Z        PSCENC =       113.83449793
  Ewald energy   TEWEN  =     -1014.33615643
  -Hartree energ DENC   =      -111.58446484
  -exchange      EXHF   =         0.00000000
  -V(xc)+E(xc)   XCENC  =        89.48451696
  PAW double counting   =      3270.55884140    -3261.27627493
  entropy T*S    EENTRO =        -0.00000000
  eigenvalues    EBANDS =       -21.14429756
  atomic energy  EATOM  =       854.02186985
  Solvation  Ediel_sol  =         0.00000000
  free energy    TOTEN  =       -80.44146762 eV

  energy without entropy =      -80.44146762  energy(sigma->0) =      -80.44146762

 average (electrostatic) potential at core
  the test charge radii are     0.7672
  (the norm of the test charge is              1.0000)
       1 -25.4952       2 -25.4952       3 -25.4952       4 -25.4952       5 -25.4952
       6 -25.4952       7 -27.0011       8 -27.0011       9 -27.0012      10 -27.0012
      11 -27.0012      12 -27.0012

 E-fermi :   6.2218     XC(G=0): -11.5516     alpha+bet :-15.3045

 val. band max:        5.9089078913   @ k =   0.0000  -0.0000   0.5000
 cond. band min:       7.3650816789   @ k =   0.0000   0.5000   0.5000
 fundamental gap:      1.4561737875
 Fermi energy:         6.2218482883

 k-point     1 :       0.0000    0.0000    0.0000
  band No.  band energies     occupation
      1     -10.2655      2.00000
      2      -4.5340      2.00000
      3      -4.2782      2.00000
      4      -4.2781      2.00000
      5      -3.2247      2.00000
      6      -2.5704      2.00000
      7      -2.5702      2.00000
      8      -2.2665      2.00000
      9      -0.6234      2.00000
     10      -0.4837      2.00000
     11      -0.4836      2.00000
     12       0.3583      2.00000
     13       1.4752      2.00000
     14       1.4753      2.00000
     15       4.5228      2.00000
     16       5.0701      2.00000
     17       5.0703      2.00000
     18       5.5535      2.00000
     19       7.3968      0.00000
     20      10.4298      0.00000
     21      10.4301      0.00000
     22      10.6190      0.00000
     23      10.6193      0.00000
     24      12.2885      0.00000
     25      13.7123      0.00000
     26      13.7125      0.00000
     27      14.9483      0.00000
     28      15.5944      0.00000
     29      15.5947      0.00000
     30      16.0844      0.00000
     31      16.0844      0.00000
     32      16.2311      0.00000
     33      17.5143      0.00000
     34      17.5149      0.00000
     35      17.5668      0.00000
     36      17.8091      0.00000
     37      18.4734      0.00000
     38      18.4734      0.00000
     39      18.5604      0.00000
     40      18.6130      0.00000
     41      18.6131      0.00000
     42      18.9794      0.00000
     43      19.3700      0.00000
     44      19.3704      0.00000
     45      19.5240      0.00000
     46      20.5323      0.00000
     47      22.4907      0.00000
     48      22.4908      0.00000

[...]

 k-point   150 :       0.0000   -0.0000    0.5000
  band No.  band energies     occupation
      1      -9.7051      2.00000
      2      -6.7699      2.00000
      3      -4.4378      2.00000
      4      -4.4376      2.00000
      5      -3.8328      2.00000
      6      -2.8386      2.00000
      7      -2.8383      2.00000
      8      -0.6228      2.00000
      9       0.1743      2.00000
     10       0.1745      2.00000
     11       1.0920      2.00000
     12       1.8680      2.00000
     13       2.5928      2.00000
     14       2.5929      2.00000
     15       2.9127      2.00000
     16       4.0264      2.00000
     17       4.0265      2.00000
     18       5.9089      2.00000
     19       8.5143      0.00000
     20       8.6783      0.00000
     21       8.6784      0.00000
     22      10.8045      0.00000
     23      10.8048      0.00000
     24      11.3816      0.00000
     25      11.8982      0.00000
     26      13.0230      0.00000
     27      13.0235      0.00000
     28      13.6104      0.00000
     29      14.1380      0.00000
     30      15.8367      0.00000
     31      16.6130      0.00000
     32      16.6131      0.00000
     33      17.2524      0.00000
     34      17.2529      0.00000
     35      17.3519      0.00000
     36      17.3521      0.00000
     37      17.4360      0.00000
     38      17.4360      0.00000
     39      20.0762      0.00000
     40      20.0763      0.00000
     41      20.3380      0.00000
     42      20.3381      0.00000
     43      21.0718      0.00000
     44      21.5598      0.00000
     45      22.3656      0.00000
     46      22.3657      0.00000
     47      23.4830      0.00000
     48      23.4835      0.00000

 soft charge-density along one line, spin component           1
         0         1         2         3         4         5         6         7         8         9
 total charge-density along one line

------------------------ aborting loop because EDIFF is reached ----------------------------------------

  FORCE on cell =-STRESS in cart. coord.  units (eV):
  Direction    XX          YY          ZZ          XY          YZ          ZX
  Alpha Z   113.83450   113.83450   113.83450
  Ewald    -332.84064  -328.15146  -353.34637     6.35536   -11.45547    16.43623
  Hartree    38.94423    40.50022    32.13797     2.10888    -3.80447     5.45863
  E(xc)    -117.48317  -117.44577  -117.64659     0.05069    -0.09128     0.13097
  Local     -87.93466   -92.84548   -66.46129    -6.65577    11.99810   -17.21480
  n-local   -13.90173   -12.09746   -14.51844     0.14707    -0.69523     1.13878
  augment     0.73253     0.74375     0.68349     0.01521    -0.02745     0.03938
  Kinetic   402.70513   391.20959   405.24841    -0.50045     3.15458    -6.66331
  Fock        0.00000     0.00000     0.00000     0.00000     0.00000     0.00000
  Total      -0.09423    -0.10171    -0.06831    -0.01014     0.01505    -0.02159
  in kB      -1.73482    -1.87262    -1.25763    -0.18676     0.27705    -0.39752

 VOLUME and BASIS-vectors are now :
  energy-cutoff  :      414.20
  volume of cell :       87.03
      direct lattice vectors                 reciprocal lattice vectors
     4.285378434  0.000000000  2.377414169     0.233351620  0.086086871  0.000000000
    -1.483226089  4.020510998 -2.377414169     0.000000000  0.248724603  0.000000000
     0.000000000  0.000000000  5.050980000    -0.109834814  0.076550936  0.197981382

  length of vectors
     4.900670000  4.900670000  5.050980000     0.248724603  0.248724603  0.238998660

 FORCES acting on ions
    electron-ion (+dipol)            ewald-force                    non-local-force                 convergence-correction
   0.572E+01 -.399E+01 0.419E+02   -.529E+01 0.368E+01 -.473E+02   -.438E+00 0.305E+00 0.535E+01   0.703E-04 -.490E-04 -.325E-03
   -.572E+01 0.399E+01 -.419E+02   0.529E+01 -.368E+01 0.473E+02   0.438E+00 -.305E+00 -.535E+01   -.703E-04 0.490E-04 0.325E-03
   -.962E+01 0.376E+02 0.173E+02   0.114E+02 -.415E+02 -.205E+02   -.178E+01 0.393E+01 0.320E+01   0.129E-03 -.207E-03 -.232E-03
   0.962E+01 -.376E+02 -.173E+02   -.114E+02 0.415E+02 0.205E+02   0.178E+01 -.393E+01 -.320E+01   -.129E-03 0.207E-03 0.232E-03
   -.386E+02 -.399E+01 0.173E+02   0.429E+02 0.369E+01 -.205E+02   -.431E+01 0.305E+00 0.320E+01   0.239E-03 -.490E-04 -.232E-03
   0.386E+02 0.399E+01 -.173E+02   -.429E+02 -.369E+01 0.205E+02   0.431E+01 -.305E+00 -.320E+01   -.239E-03 0.490E-04 0.232E-03
   0.440E+02 -.307E+02 0.118E+02   -.433E+02 0.302E+02 -.109E+02   -.676E+00 0.471E+00 -.903E+00   0.771E-03 -.538E-03 -.264E-03
   -.440E+02 0.307E+02 -.118E+02   0.433E+02 -.302E+02 0.109E+02   0.676E+00 -.471E+00 0.903E+00   -.771E-03 0.538E-03 0.264E-03
   0.172E+02 0.419E+02 -.311E+02   -.172E+02 -.406E+02 0.310E+02   -.529E-01 -.122E+01 0.947E-01   0.440E-03 0.359E-03 -.794E-03
   -.172E+02 -.419E+02 0.311E+02   0.172E+02 0.406E+02 -.310E+02   0.529E-01 0.122E+01 -.947E-01   -.440E-03 -.359E-03 0.794E-03
   -.333E+02 -.307E+02 -.311E+02   0.322E+02 0.302E+02 0.310E+02   0.112E+01 0.471E+00 0.947E-01   -.184E-03 -.537E-03 -.794E-03
   0.333E+02 0.307E+02 0.311E+02   -.322E+02 -.302E+02 -.310E+02   -.112E+01 -.471E+00 -.947E-01   0.184E-03 0.537E-03 0.794E-03
   0.174E-12 -.238E-12 -.802E-12   0.711E-14 0.711E-14 0.000E+00   0.000E+00 0.000E+00 0.129E-14   -.665E-14 -.112E-14 -.516E-15

 POSITION                                       TOTAL-FORCE (eV/Angst)
      4.22590      0.04145      5.73604        -0.000161      0.000112      0.012920
     -1.42375      3.97906     -0.68506         0.000161     -0.000112     -0.012920
      3.27111      2.62958      4.20562        -0.003749      0.008992      0.006968
     -0.46895      1.39094      0.84536         0.003749     -0.008992     -0.006968
      1.46728      0.04145      4.20562        -0.009733      0.000405      0.006968
      1.33487      3.97906      0.84536         0.009733     -0.000405     -0.006968
      3.00965      0.88914      1.69329         0.010868     -0.007574      0.003549
     -0.20750      3.13137      3.35769        -0.010868      0.007574     -0.003549
      2.40260      2.53465      0.72026         0.003735      0.011372     -0.007999
      0.39956      1.48586      4.33072        -0.003735     -0.011372      0.007999
      1.25573      0.88914      0.72026        -0.009376     -0.007440     -0.007999
      1.54642      3.13137      4.33072         0.009376      0.007440      0.007999
    total drift:                                0.000000     -0.000000     -0.000000

  FREE ENERGIE OF THE ION-ELECTRON SYSTEM (eV)
  free  energy   TOTEN  =       -80.44146762 eV

  energy  without entropy=      -80.44146762  energy(sigma->0) =      -80.44146762

 writing wavefunctions