 vasp.6.4.3 19Mar24 (build Jun 26 2024 13:02:28) complex

 executed on             LinuxIFC date 2025.08.08  18:18:24

 INCAR:
   ENCUT = 313.4079
   IBRION = -1
   ISMEAR = 0
   ISYM = 2
   LCHARG = True
   LWAVE = True
   SIGMA = 0.05
   SYSTEM = Sn

 POTCAR:  PAW_PBE Sn_d 06Sep2000
|           W    W    AA    RRRRR   N    N  II  N    N   GGGG   !!!           |
|           W    W   A  A   R    R  NN   N  II  NN   N  G    G  !!!           |
|           W    W  A    A  R    R  N N  N  II  N N  N  G       !!!           |
|           W WW W  AAAAAA  RRRRR   N  N N  II  N  N N  G  GGG   !            |
|           WW  WW  A    A  R   R   N   NN  II  N   NN  G    G                |
|           W    W  A    A  R    R  N    N  II  N    N   GGGG   !!!           |
|     For optimal performance we recommend to set                             |
|       NCORE = 2 up to number-of-cores-per-socket                            |
|     This setting can greatly improve the performance of VASP for DFT.       |
|     The default, NCORE=1 might be grossly inefficient on modern             |
|     multi-core architectures or massively parallel machines. Do your        |
|     Unfortunately you need to use the default for GW and RPA                |
|     calculations (for HF NCORE is supported but not extensively tested      |
|     yet).                                                                   |

 POTCAR:  PAW_PBE Sn_d 06Sep2000
   VRHFIN =Sn: s2p2

   TITEL  = PAW_PBE Sn_d 06Sep2000
   POMASS =  118.710; ZVAL   =   14.000    mass and valenz
   ENMAX  =  241.083; ENMIN  =  180.812 eV

PAW_PBE Sn_d 06Sep2000                  :

 POSCAR: Sn2
  positions in direct lattice

 exchange-correlation table for PE
   RHO(1)=    0.500       N(1)  =     2000
   RHO(2)=  100.500       N(2)  =     4000

 ion  position               nearest neighbor table
   1  0.000  0.000  0.000-   2 2.88   2 2.88   2 2.88   2 2.88
   2  0.250  0.250  0.250-   1 2.88   1 2.88   1 2.88   1 2.88

  LATTYP: Found a face centered cubic cell.
 ALAT       =     6.6559537049

  Lattice vectors:

 A1 = (   4.0759225821,   0.0000000000,   2.3532350000)
 A2 = (   1.3586408607,   3.8428166632,   2.3532350000)
 A3 = (   0.0000000000,   0.0000000000,   4.7064700000)

Analysis of symmetry for initial positions (statically):
 Subroutine PRICEL returns:
 Original cell was already a primitive cell.

 Routine SETGRP: Setting up the symmetry group for a
 face centered cubic supercell.

 Subroutine GETGRP returns: Found 48 space group operations
 (whereof 24 operations were pure point group operations)
 out of a pool of 48 trial point group operations.

The static configuration has the point symmetry T_d .
 The point group associated with its full space group is O_h .

Analysis of symmetry for dynamics (positions and initial velocities):
 Subroutine PRICEL returns:
 Original cell was already a primitive cell.

 Routine SETGRP: Setting up the symmetry group for a
 face centered cubic supercell.

 Subroutine GETGRP returns: Found 48 space group operations
 (whereof 24 operations were pure point group operations)
 out of a pool of 48 trial point group operations.

The dynamic configuration has the point symmetry T_d .
 The point group associated with its full space group is O_h .

 Subroutine INISYM returns: Found 48 space group operations
 (whereof 24 operations are pure point group operations),
 and found     1 'primitive' translations

                                     Primitive cell

  volume of cell :      73.7175

  direct lattice vectors                    reciprocal lattice vectors
     4.075922582  0.000000000  2.353235000     0.245343227 -0.086741930  0.000000000
     1.358640861  3.842816663  2.353235000     0.000000000  0.260225789  0.000000000
     0.000000000  0.000000000  4.706470000    -0.122671614 -0.086741930  0.212473467

  length of vectors
     4.706470000  4.706470000  4.706470000     0.260225789  0.260225789  0.260225789

  position of ions in fractional coordinates (direct lattice)
     0.000000000  0.000000000  0.000000000
     0.250000000  0.250000000  0.250000000

  ion indices of the primitive-cell ions
   primitive index   ion index
                 1           1
                 2           2

 KPOINTS: Automatic kpoint scheme

Automatic generation of k-mesh.
 Grid dimensions read from file:
 generate k-points for:   12   12   12

 Generating k-lattice:

  Cartesian coordinates                     Fractional coordinates (reciprocal lattice)
     0.020445269 -0.007228494  0.000000000     0.083333333  0.000000000  0.000000000
     0.000000000  0.021685482  0.000000000     0.000000000  0.083333333  0.000000000
    -0.010222634 -0.007228494  0.017706122    -0.000000000  0.000000000  0.083333333

  Length of vectors
     0.021685482  0.021685482  0.021685482

  Shift w.r.t. Gamma in fractional coordinates (k-lattice)
     0.000000000  0.000000000  0.000000000

 Subroutine IBZKPT returns following result:

 Found     72 irreducible k-points:

 Following reciprocal coordinates:
            Coordinates               Weight
  0.000000  0.000000  0.000000      1.000000
  0.083333  0.000000  0.000000      8.000000
  0.166667  0.000000  0.000000      8.000000
  0.250000  0.000000  0.000000      8.000000
  0.333333  0.000000  0.000000      8.000000
  0.416667  0.000000  0.000000      8.000000
  0.500000  0.000000  0.000000      4.000000
  0.083333  0.083333  0.000000      6.000000
  0.166667  0.083333  0.000000     24.000000
  0.250000  0.083333  0.000000     24.000000
  0.333333  0.083333  0.000000     24.000000
  0.416667  0.083333  0.000000     24.000000
  0.500000  0.083333  0.000000     24.000000
 -0.416667  0.083333  0.000000     24.000000
 -0.333333  0.083333  0.000000     24.000000
 -0.250000  0.083333  0.000000     24.000000
 -0.166667  0.083333  0.000000     24.000000
 -0.083333  0.083333  0.000000     12.000000
  0.166667  0.166667  0.000000      6.000000
  0.250000  0.166667  0.000000     24.000000
  0.333333  0.166667  0.000000     24.000000
  0.416667  0.166667  0.000000     24.000000
  0.500000  0.166667  0.000000     24.000000
 -0.416667  0.166667  0.000000     24.000000
 -0.333333  0.166667  0.000000     24.000000
 -0.250000  0.166667  0.000000     24.000000
 -0.166667  0.166667  0.000000     12.000000
  0.250000  0.250000  0.000000      6.000000
  0.333333  0.250000  0.000000     24.000000
  0.416667  0.250000  0.000000     24.000000
  0.500000  0.250000  0.000000     24.000000
 -0.416667  0.250000  0.000000     24.000000
 -0.333333  0.250000  0.000000     24.000000
 -0.250000  0.250000  0.000000     12.000000
  0.333333  0.333333  0.000000      6.000000
  0.416667  0.333333  0.000000     24.000000
  0.500000  0.333333  0.000000     24.000000
 -0.416667  0.333333  0.000000     24.000000
 -0.333333  0.333333  0.000000     12.000000
  0.416667  0.416667  0.000000      6.000000
  0.500000  0.416667  0.000000     24.000000
 -0.416667  0.416667  0.000000     12.000000
  0.500000  0.500000  0.000000      3.000000
  0.250000  0.166667  0.083333     24.000000
  0.333333  0.166667  0.083333     48.000000
  0.416667  0.166667  0.083333     48.000000
  0.500000  0.166667  0.083333     48.000000
 -0.416667  0.166667  0.083333     24.000000
  0.333333  0.250000  0.083333     24.000000
  0.416667  0.250000  0.083333     48.000000
  0.500000  0.250000  0.083333     48.000000
 -0.416667  0.250000  0.083333     48.000000
 -0.333333  0.250000  0.083333     48.000000
 -0.250000  0.250000  0.083333     48.000000
 -0.166667  0.250000  0.083333     24.000000
  0.416667  0.333333  0.083333     24.000000
  0.500000  0.333333  0.083333     48.000000
 -0.416667  0.333333  0.083333     48.000000
 -0.333333  0.333333  0.083333     48.000000
 -0.250000  0.333333  0.083333     24.000000
  0.500000  0.416667  0.083333     24.000000
 -0.416667  0.416667  0.083333     48.000000
 -0.333333  0.416667  0.083333     24.000000
 -0.416667  0.500000  0.083333     12.000000
  0.500000  0.333333  0.166667     24.000000
 -0.416667  0.333333  0.166667     48.000000
 -0.333333  0.333333  0.166667     24.000000
 -0.416667  0.416667  0.166667     24.000000
 -0.333333  0.416667  0.166667     48.000000
 -0.250000  0.416667  0.166667     24.000000
 -0.333333  0.500000  0.166667     12.000000
 -0.250000  0.500000  0.250000      6.000000

 Following cartesian coordinates:
            Coordinates               Weight
  0.000000  0.000000  0.000000      1.000000
  0.020445 -0.007228  0.000000      8.000000
  0.040891 -0.014457  0.000000      8.000000
  0.061336 -0.021685  0.000000      8.000000
  0.081781 -0.028914  0.000000      8.000000
  0.102226 -0.036142  0.000000      8.000000
  0.122672 -0.043371  0.000000      4.000000
  0.020445  0.014457  0.000000      6.000000
  0.040891  0.007228  0.000000     24.000000
  0.061336  0.000000  0.000000     24.000000
  0.081781 -0.007228  0.000000     24.000000
  0.102226 -0.014457  0.000000     24.000000
  0.122672 -0.021685  0.000000     24.000000
 -0.102226  0.057828  0.000000     24.000000
 -0.081781  0.050599  0.000000     24.000000
 -0.061336  0.043371  0.000000     24.000000
 -0.040891  0.036142  0.000000     24.000000
 -0.020445  0.028914  0.000000     12.000000
  0.040891  0.028914  0.000000      6.000000
  0.061336  0.021685  0.000000     24.000000
  0.081781  0.014457  0.000000     24.000000
  0.102226  0.007228  0.000000     24.000000
  0.122672 -0.000000  0.000000     24.000000
 -0.102226  0.079513  0.000000     24.000000
 -0.081781  0.072285  0.000000     24.000000
 -0.061336  0.065056  0.000000     24.000000
 -0.040891  0.057828  0.000000     12.000000
  0.061336  0.043371  0.000000      6.000000
  0.081781  0.036142  0.000000     24.000000
  0.102226  0.028914  0.000000     24.000000
  0.122672  0.021685  0.000000     24.000000
 -0.102226  0.101199  0.000000     24.000000
 -0.081781  0.093970  0.000000     24.000000
 -0.061336  0.086742  0.000000     12.000000
  0.081781  0.057828  0.000000      6.000000
  0.102226  0.050599  0.000000     24.000000
  0.122672  0.043371  0.000000     24.000000
 -0.102226  0.122884  0.000000     24.000000
 -0.081781  0.115656  0.000000     12.000000
  0.102226  0.072285  0.000000      6.000000
  0.122672  0.065056  0.000000     24.000000
 -0.102226  0.144570  0.000000     12.000000
  0.122672  0.086742  0.000000      3.000000
  0.051113  0.014457  0.017706     24.000000
  0.071558  0.007228  0.017706     48.000000
  0.092004 -0.000000  0.017706     48.000000
  0.112449 -0.007228  0.017706     48.000000
 -0.112449  0.072285  0.017706     24.000000
  0.071558  0.028914  0.017706     24.000000
  0.092004  0.021685  0.017706     48.000000
  0.112449  0.014457  0.017706     48.000000
 -0.112449  0.093970  0.017706     48.000000
 -0.092004  0.086742  0.017706     48.000000
 -0.071558  0.079513  0.017706     48.000000
 -0.051113  0.072285  0.017706     24.000000
  0.092004  0.043371  0.017706     24.000000
  0.112449  0.036142  0.017706     48.000000
 -0.112449  0.115656  0.017706     48.000000
 -0.092004  0.108427  0.017706     48.000000
 -0.071558  0.101199  0.017706     24.000000
  0.112449  0.057828  0.017706     24.000000
 -0.112449  0.137341  0.017706     48.000000
[...]
   0.25000000  0.25000000  0.00000000       0.003
   0.33333333  0.25000000  0.00000000       0.014
   0.41666667  0.25000000  0.00000000       0.014
   0.50000000  0.25000000  0.00000000       0.014
  -0.41666667  0.25000000  0.00000000       0.014
  -0.33333333  0.25000000  0.00000000       0.014
  -0.25000000  0.25000000  0.00000000       0.007
   0.33333333  0.33333333  0.00000000       0.003
   0.41666667  0.33333333  0.00000000       0.014
   0.50000000  0.33333333  0.00000000       0.014
  -0.41666667  0.33333333  0.00000000       0.014
  -0.33333333  0.33333333  0.00000000       0.007
   0.41666667  0.41666667  0.00000000       0.003
   0.50000000  0.41666667  0.00000000       0.014
  -0.41666667  0.41666667  0.00000000       0.007
   0.50000000  0.50000000  0.00000000       0.002
   0.25000000  0.16666667  0.08333333       0.014
   0.33333333  0.16666667  0.08333333       0.028
   0.41666667  0.16666667  0.08333333       0.028
   0.50000000  0.16666667  0.08333333       0.028
  -0.41666667  0.16666667  0.08333333       0.014
   0.33333333  0.25000000  0.08333333       0.014
   0.41666667  0.25000000  0.08333333       0.028
   0.50000000  0.25000000  0.08333333       0.028
  -0.41666667  0.25000000  0.08333333       0.028
  -0.33333333  0.25000000  0.08333333       0.028
  -0.25000000  0.25000000  0.08333333       0.028
  -0.16666667  0.25000000  0.08333333       0.014
   0.41666667  0.33333333  0.08333333       0.014
   0.50000000  0.33333333  0.08333333       0.028
  -0.41666667  0.33333333  0.08333333       0.028
  -0.33333333  0.33333333  0.08333333       0.028
  -0.25000000  0.33333333  0.08333333       0.014
   0.50000000  0.41666667  0.08333333       0.014
  -0.41666667  0.41666667  0.08333333       0.028
  -0.33333333  0.41666667  0.08333333       0.014
  -0.41666667  0.50000000  0.08333333       0.007
   0.50000000  0.33333333  0.16666667       0.014
  -0.41666667  0.33333333  0.16666667       0.028
  -0.33333333  0.33333333  0.16666667       0.014
  -0.41666667  0.41666667  0.16666667       0.014
  -0.33333333  0.41666667  0.16666667       0.028
  -0.25000000  0.41666667  0.16666667       0.014
  -0.33333333  0.50000000  0.16666667       0.007
  -0.25000000  0.50000000  0.25000000       0.003

 position of ions in fractional coordinates (direct lattice)
   0.00000000  0.00000000  0.00000000
   0.25000000  0.25000000  0.25000000

 position of ions in cartesian coordinates  (Angst):
   0.00000000  0.00000000  0.00000000
   1.35864086  0.96070417  2.35323500

 k-point     1 :   0.0000 0.0000 0.0000  plane waves:     941
 k-point     2 :   0.0833 0.0000 0.0000  plane waves:     929
 k-point     3 :   0.1667 0.0000 0.0000  plane waves:     917
 k-point     4 :   0.2500 0.0000 0.0000  plane waves:     932
 k-point     5 :   0.3333 0.0000 0.0000  plane waves:     926
 k-point     6 :   0.4167 0.0000 0.0000  plane waves:     932
 k-point     7 :   0.5000 0.0000 0.0000  plane waves:     912
 k-point     8 :   0.0833 0.0833 0.0000  plane waves:     933
 k-point     9 :   0.1667 0.0833 0.0000  plane waves:     926
 k-point    10 :   0.2500 0.0833 0.0000  plane waves:     927
 k-point    11 :   0.3333 0.0833 0.0000  plane waves:     929
 k-point    12 :   0.4167 0.0833 0.0000  plane waves:     920
 k-point    13 :   0.5000 0.0833 0.0000  plane waves:     926
 k-point    14 :  -0.4167 0.0833 0.0000  plane waves:     929
 k-point    15 :  -0.3333 0.0833 0.0000  plane waves:     928
 k-point    16 :  -0.2500 0.0833 0.0000  plane waves:     932
 k-point    17 :  -0.1667 0.0833 0.0000  plane waves:     926
 k-point    18 :  -0.0833 0.0833 0.0000  plane waves:     925
 k-point    19 :   0.1667 0.1667 0.0000  plane waves:     929
 k-point    20 :   0.2500 0.1667 0.0000  plane waves:     929
 k-point    21 :   0.3333 0.1667 0.0000  plane waves:     937
 k-point    22 :   0.4167 0.1667 0.0000  plane waves:     921
 k-point    23 :   0.5000 0.1667 0.0000  plane waves:     928
 k-point    24 :  -0.4167 0.1667 0.0000  plane waves:     932
 k-point    25 :  -0.3333 0.1667 0.0000  plane waves:     922
 k-point    26 :  -0.2500 0.1667 0.0000  plane waves:     925
 k-point    27 :  -0.1667 0.1667 0.0000  plane waves:     929
 k-point    28 :   0.2500 0.2500 0.0000  plane waves:     950
 k-point    29 :   0.3333 0.2500 0.0000  plane waves:     926
 k-point    30 :   0.4167 0.2500 0.0000  plane waves:     928
 k-point    31 :   0.5000 0.2500 0.0000  plane waves:     932
 k-point    32 :  -0.4167 0.2500 0.0000  plane waves:     940
 k-point    33 :  -0.3333 0.2500 0.0000  plane waves:     928
 k-point    34 :  -0.2500 0.2500 0.0000  plane waves:     919
 k-point    35 :   0.3333 0.3333 0.0000  plane waves:     922
 k-point    36 :   0.4167 0.3333 0.0000  plane waves:     930
 k-point    37 :   0.5000 0.3333 0.0000  plane waves:     932
 k-point    38 :  -0.4167 0.3333 0.0000  plane waves:     938
 k-point    39 :  -0.3333 0.3333 0.0000  plane waves:     935
 k-point    40 :   0.4167 0.4167 0.0000  plane waves:     942
 k-point    41 :   0.5000 0.4167 0.0000  plane waves:     940
 k-point    42 :  -0.4167 0.4167 0.0000  plane waves:     944
 k-point    43 :   0.5000 0.5000 0.0000  plane waves:     934
 k-point    44 :   0.2500 0.1667 0.0833  plane waves:     927
 k-point    45 :   0.3333 0.1667 0.0833  plane waves:     932
 k-point    46 :   0.4167 0.1667 0.0833  plane waves:     924
 k-point    47 :   0.5000 0.1667 0.0833  plane waves:     927
 k-point    48 :  -0.4167 0.1667 0.0833  plane waves:     930
 k-point    49 :   0.3333 0.2500 0.0833  plane waves:     932
 k-point    50 :   0.4167 0.2500 0.0833  plane waves:     927
 k-point    51 :   0.5000 0.2500 0.0833  plane waves:     927
 k-point    52 :  -0.4167 0.2500 0.0833  plane waves:     934
 k-point    53 :  -0.3333 0.2500 0.0833  plane waves:     933
 k-point    54 :  -0.2500 0.2500 0.0833  plane waves:     926
 k-point    55 :  -0.1667 0.2500 0.0833  plane waves:     922
 k-point    56 :   0.4167 0.3333 0.0833  plane waves:     926
 k-point    57 :   0.5000 0.3333 0.0833  plane waves:     930
 k-point    58 :  -0.4167 0.3333 0.0833  plane waves:     929
 k-point    59 :  -0.3333 0.3333 0.0833  plane waves:     931
 k-point    60 :  -0.2500 0.3333 0.0833  plane waves:     929
 k-point    61 :   0.5000 0.4167 0.0833  plane waves:     931
 k-point    62 :  -0.4167 0.4167 0.0833  plane waves:     935
 k-point    63 :  -0.3333 0.4167 0.0833  plane waves:     928
 k-point    64 :  -0.4167 0.5000 0.0833  plane waves:     940
 k-point    65 :   0.5000 0.3333 0.1667  plane waves:     926
 k-point    66 :  -0.4167 0.3333 0.1667  plane waves:     923
 k-point    67 :  -0.3333 0.3333 0.1667  plane waves:     936
 k-point    68 :  -0.4167 0.4167 0.1667  plane waves:     929
 k-point    69 :  -0.3333 0.4167 0.1667  plane waves:     926
 k-point    70 :  -0.2500 0.4167 0.1667  plane waves:     924
 k-point    71 :  -0.3333 0.5000 0.1667  plane waves:     938
 k-point    72 :  -0.2500 0.5000 0.2500  plane waves:     932

 maximum and minimum number of plane-waves per node :       950      912

 maximum number of plane-waves:       950
 maximum index in each direction:
   IXMAX=    7   IYMAX=    6   IZMAX=    6
   IXMIN=   -7   IYMIN=   -7   IZMIN=   -7

 serial   3D FFT for wavefunctions
 parallel 3D FFT for charge:
    minimum data exchange during FFTs selected (reduces bandwidth)

 Broyden mixing: mesh for mixing (old mesh)
   NGX = 13   NGY = 13   NGZ = 13
  (NGX  = 40   NGY  = 40   NGZ  = 40)
  gives a total of   2197 points

 charge density for first step will be calculated from the start-wavefunctions

 Maximum index for augmentation-charges          313 (set IRDMAX)

 initial charge from wavefunction
 First call to EWALD:  gamma=   0.423
 Maximum number of real-space cells 3x 3x 3
 Maximum number of reciprocal cells 3x 3x 3

--------------------------------------- Ionic step        1  -------------------------------------------

--------------------------------------- Iteration      1(   1)  ---------------------------------------

 eigenvalue-minimisations  :  8880
 total energy-change (2. order) :-0.7692859E+01  (-0.9414686E-06)
 number of electron      28.0000233 magnetization
 augmentation part       14.6659769 magnetization

 Broyden mixing:
  rms(total) = 0.16797E-03    rms(broyden)= 0.16794E-03
  rms(prec ) = 0.40465E-03
  weight for this iteration     100.00

 Free energy of the ion-electron system (eV)
  alpha Z        PSCENC =        60.76520552
  Ewald energy   TEWEN  =     -2284.19170917
  -Hartree energ DENC   =     -1279.13271594
  -exchange      EXHF   =         0.00000000
  -V(xc)+E(xc)   XCENC  =       113.30427060
  PAW double counting   =      3796.16035969    -3873.99489527
  entropy T*S    EENTRO =        -0.00049072
  eigenvalues    EBANDS =      -326.76542990
  atomic energy  EATOM  =      3786.16254605
  Solvation  Ediel_sol  =         0.00000000
  free energy    TOTEN  =        -7.69285914 eV

  energy without entropy =       -7.69236842  energy(sigma->0) =       -7.69261378

--------------------------------------- Iteration      1(   2)  ---------------------------------------

 eigenvalue-minimisations  :  3744
 total energy-change (2. order) : 0.3381160E-06  (-0.3153691E-07)
 number of electron      28.0000233 magnetization
 augmentation part       14.6659769 magnetization

 Free energy of the ion-electron system (eV)
  alpha Z        PSCENC =        60.76520552
  Ewald energy   TEWEN  =     -2284.19170917
  -Hartree energ DENC   =     -1279.12202553
  -exchange      EXHF   =         0.00000000
  -V(xc)+E(xc)   XCENC  =       113.30385782
  PAW double counting   =      3796.23752367    -3874.06962570
  entropy T*S    EENTRO =        -0.00049068
  eigenvalues    EBANDS =      -326.77814078
  atomic energy  EATOM  =      3786.16254605
  Solvation  Ediel_sol  =         0.00000000
  free energy    TOTEN  =        -7.69285880 eV

  energy without entropy =       -7.69236812  energy(sigma->0) =       -7.69261346

 average (electrostatic) potential at core
  the test charge radii are     1.0894
  (the norm of the test charge is              1.0000)
       1-102.1272       2-102.1272

 E-fermi :   4.8373     XC(G=0):  -8.5484     alpha+bet : -9.8056

 val. band max:        4.8303114757   @ k =   0.0833   0.0000   0.0000
 cond. band min:       4.8888112210   @ k =   0.3333   0.0000   0.0000
 fundamental gap:      0.0584997454
 Fermi energy:         4.8372980720

 k-point     1 :       0.0000    0.0000    0.0000
  band No.  band energies     occupation
      1     -16.6619      2.00000
      2     -16.6618      2.00000
      3     -16.6618      2.00000
      4     -16.6130      2.00000
      5     -16.6130      2.00000
      6     -16.3598      2.00000
      7     -16.3598      2.00000
      8     -16.3598      2.00000
      9     -16.3583      2.00000
     10     -16.3583      2.00000
     11      -5.2510      2.00000
     12       3.7139      2.00000
     13       4.9550      0.00087
     14       4.9550      0.00087
     15       4.9550      0.00087
     16       7.0157      0.00000
     17       7.0157      0.00000
     18       7.0158      0.00000
     19       9.8311      0.00000
     20      12.6530      0.00000
     21      12.6530      0.00000
     22      13.1532      0.00000
     23      13.1532      0.00000
     24      13.1532      0.00000
     25      15.5339      0.00000
     26      22.3105      0.00000
     27      22.3107      0.00000
     28      22.3107      0.00000
     29      24.2485      0.00000
     30      24.2485      0.00000
     31      24.2486      0.00000
     32      25.4563      0.00000
     33      25.4563      0.00000
     34      25.4563      0.00000
     35      25.7837      0.00000
     36      25.7837      0.00000
     37      29.6809      0.00000
     38      30.4005      0.00000
     39      31.5793      0.00000
     40      31.5793      0.00000
     41      31.5794      0.00000
     42      32.0187      0.00000
     43      32.0187      0.00000
     44      32.0188      0.00000
     45      32.6416      0.00000
     46      32.6418      0.00000
     47      32.6418      0.00000
     48      35.2775      0.00000

[...]

 k-point    72 :      -0.2500    0.5000    0.2500
  band No.  band energies     occupation
      1     -16.7180      2.00000
      2     -16.7180      2.00000
      3     -16.5457      2.00000
      4     -16.5457      2.00000
      5     -16.4904      2.00000
      6     -16.4904      2.00000
      7     -16.4548      2.00000
      8     -16.4548      2.00000
      9     -16.2859      2.00000
     10     -16.2859      2.00000
     11      -2.3552      2.00000
     12      -2.3552      2.00000
     13       2.1333      2.00000
     14       2.1334      2.00000
     15       8.0681      0.00000
     16       8.0681      0.00000
     17       8.8773      0.00000
     18       8.8773      0.00000
     19      13.4795      0.00000
     20      13.4795      0.00000
     21      14.7724      0.00000
     22      14.7724      0.00000
     23      17.4283      0.00000
     24      17.4283      0.00000
     25      17.5953      0.00000
     26      17.5953      0.00000
     27      19.9776      0.00000
     28      19.9776      0.00000
     29      21.0902      0.00000
     30      21.0902      0.00000
     31      22.8914      0.00000
     32      22.8915      0.00000
     33      23.5554      0.00000
     34      23.5555      0.00000
     35      23.9535      0.00000
     36      23.9535      0.00000
     37      24.5658      0.00000
     38      24.5658      0.00000
     39      29.5398      0.00000
     40      29.5398      0.00000
     41      29.7412      0.00000
     42      29.7412      0.00000
     43      32.2024      0.00000
     44      32.2024      0.00000
     45      33.1942      0.00000
     46      33.1942      0.00000
     47      35.4191      0.00000
     48      35.4192      0.00000

 soft charge-density along one line, spin component           1
         0         1         2         3         4         5         6         7         8         9
 total charge-density along one line

------------------------ aborting loop because EDIFF is reached ----------------------------------------

  FORCE on cell =-STRESS in cart. coord.  units (eV):
  Direction    XX          YY          ZZ          XY          YZ          ZX
  Alpha Z    60.76521    60.76521    60.76521
  Ewald    -761.39758  -761.39758  -761.39758    -0.00000    -0.00000    -0.00000
  Hartree   426.36997   426.36997   426.36997     0.00000     0.00000     0.00000
  E(xc)    -140.93967  -140.93968  -140.93963     0.00001     0.00002     0.00003
  Local    -270.73074  -270.73078  -270.73061     0.00005     0.00008     0.00012
  n-local   135.27627   138.86514   145.87388    -1.82664    -1.34760    -0.05474
  augment   359.85094   359.85085   359.85133     0.00014     0.00024     0.00033
  Kinetic   181.45523   184.96379   191.22014    -0.58098     0.02605    -0.12611
  Fock        0.00000     0.00000     0.00000     0.00000     0.00000     0.00000
  Total      -0.19691    -0.19691    -0.19691     0.00000    -0.00000    -0.00000
  in kB      -4.27967    -4.27967    -4.27967     0.00000    -0.00000    -0.00000

 VOLUME and BASIS-vectors are now :
  energy-cutoff  :      313.41
  volume of cell :       73.72
      direct lattice vectors                 reciprocal lattice vectors
     4.075922582  0.000000000  2.353235000     0.245343227 -0.086741930  0.000000000
     1.358640861  3.842816663  2.353235000     0.000000000  0.260225789  0.000000000
     0.000000000  0.000000000  4.706470000    -0.122671614 -0.086741930  0.212473467

  length of vectors
     4.706470000  4.706470000  4.706470000     0.260225789  0.260225789  0.260225789

 FORCES acting on ions
    electron-ion (+dipol)            ewald-force                    non-local-force                 convergence-correction
   -.267E-05 -.189E-05 -.572E-05   0.333E-13 0.411E-13 0.111E-12   0.436E-16 0.706E-16 0.449E-17   0.954E-08 0.675E-08 0.165E-07
   0.267E-05 0.189E-05 0.572E-05   -.332E-13 -.414E-13 -.110E-12   -.424E-16 -.609E-16 -.642E-17   -.954E-08 -.675E-08 -.165E-07
   0.969E-12 0.538E-12 0.669E-13   0.123E-15 -.300E-15 0.876E-15   0.124E-17 0.973E-17 -.193E-17   -.858E-13 -.609E-13 -.472E-13

 POSITION                                       TOTAL-FORCE (eV/Angst)
      0.00000      0.00000      0.00000        -0.000000     -0.000000      0.000000
      1.35864      0.96070      2.35324         0.000000      0.000000     -0.000000
    total drift:                                0.000000      0.000000      0.000000

  FREE ENERGIE OF THE ION-ELECTRON SYSTEM (eV)
  free  energy   TOTEN  =        -7.69285880 eV

  energy  without entropy=       -7.69236812  energy(sigma->0) =       -7.69261346

 writing wavefunctions