 vasp.6.4.3 19Mar24 (build Jun 26 2024 13:02:28) complex

 executed on             LinuxIFC date 2025.08.08  19:14:11

 INCAR:
   ENCUT = 342.57990000000007
   IBRION = -1
   ISMEAR = 0
   ISYM = 2
   LCHARG = True
   LWAVE = True
   SIGMA = 0.05
   SYSTEM = Tc

 POTCAR:  PAW_PBE Tc_pv 04Feb2005
|           W    W    AA    RRRRR   N    N  II  N    N   GGGG   !!!           |
|           W    W   A  A   R    R  NN   N  II  NN   N  G    G  !!!           |
|           W    W  A    A  R    R  N N  N  II  N N  N  G       !!!           |
|           W WW W  AAAAAA  RRRRR   N  N N  II  N  N N  G  GGG   !            |
|           WW  WW  A    A  R   R   N   NN  II  N   NN  G    G                |
|           W    W  A    A  R    R  N    N  II  N    N   GGGG   !!!           |
|     For optimal performance we recommend to set                             |
|       NCORE = 2 up to number-of-cores-per-socket                            |
|     This setting can greatly improve the performance of VASP for DFT.       |
|     The default, NCORE=1 might be grossly inefficient on modern             |
|     multi-core architectures or massively parallel machines. Do your        |
|     Unfortunately you need to use the default for GW and RPA                |
|     calculations (for HF NCORE is supported but not extensively tested      |
|     yet).                                                                   |

 POTCAR:  PAW_PBE Tc_pv 04Feb2005
   VRHFIN =Tc: 4p5s4d

   TITEL  = PAW_PBE Tc_pv 04Feb2005
   POMASS =   98.906; ZVAL   =   13.000    mass and valenz
   ENMAX  =  263.523; ENMIN  =  197.642 eV

PAW_PBE Tc_pv 04Feb2005                 :

 POSCAR: Tc2
  positions in direct lattice

 exchange-correlation table for PE
   RHO(1)=    0.500       N(1)  =     2000
   RHO(2)=  100.500       N(2)  =     4000

 ion  position               nearest neighbor table
   1  0.000  0.000  0.000-   2 2.72   2 2.72   2 2.72   2 2.72   2 2.72   2 2.72
   2  0.333  0.333  0.500-   1 2.72   1 2.72   1 2.72   1 2.72   1 2.72   1 2.72

  LATTYP: Found a hexagonal cell.
 ALAT       =     2.7618700000
 C/A-ratio  =     1.6000210003

  Lattice vectors:

 A1 = (  -1.3809350000,  -2.3918495820,   0.0000000000)
 A2 = (   2.7618700000,   0.0000000000,   0.0000000000)
 A3 = (   0.0000000000,   0.0000000000,   4.4190500000)

Analysis of symmetry for initial positions (statically):
 Subroutine PRICEL returns:
 Original cell was already a primitive cell.

 Routine SETGRP: Setting up the symmetry group for a
 hexagonal supercell.

 Subroutine GETGRP returns: Found 24 space group operations
 (whereof 12 operations were pure point group operations)
 out of a pool of 24 trial point group operations.

The static configuration has the point symmetry D_3h.
 The point group associated with its full space group is D_6h.

Analysis of symmetry for dynamics (positions and initial velocities):
 Subroutine PRICEL returns:
 Original cell was already a primitive cell.

 Routine SETGRP: Setting up the symmetry group for a
 hexagonal supercell.

 Subroutine GETGRP returns: Found 24 space group operations
 (whereof 12 operations were pure point group operations)
 out of a pool of 24 trial point group operations.

The dynamic configuration has the point symmetry D_3h.
 The point group associated with its full space group is D_6h.

 Subroutine INISYM returns: Found 24 space group operations
 (whereof 12 operations are pure point group operations),
 and found     1 'primitive' translations

                                     Primitive cell

  volume of cell :      29.1921

  direct lattice vectors                    reciprocal lattice vectors
     2.761870000  0.000000000  0.000000000     0.362073523 -0.209043246  0.000000000
     1.380935000  2.391849582  0.000000000     0.000000000  0.418086492  0.000000000
     0.000000000  0.000000000  4.419050000    -0.000000000 -0.000000000  0.226292982

  length of vectors
     2.761870000  2.761870000  4.419050000     0.418086492  0.418086492  0.226292982

  position of ions in fractional coordinates (direct lattice)
     0.000000000  0.000000000  0.000000000
     0.333333333  0.333333333  0.500000000

  ion indices of the primitive-cell ions
   primitive index   ion index
                 1           1
                 2           2

 KPOINTS: Automatic kpoint scheme

Automatic generation of k-mesh.
 Grid dimensions read from file:
 generate k-points for:   12   12   12

 Generating k-lattice:

  Cartesian coordinates                     Fractional coordinates (reciprocal lattice)
     0.030172794 -0.017420270  0.000000000     0.083333333  0.000000000  0.000000000
     0.000000000  0.034840541  0.000000000     0.000000000  0.083333333  0.000000000
    -0.000000000 -0.000000000  0.018857748     0.000000000  0.000000000  0.083333333

  Length of vectors
     0.034840541  0.034840541  0.018857748

  Shift w.r.t. Gamma in fractional coordinates (k-lattice)
     0.000000000  0.000000000  0.000000000

 Subroutine IBZKPT returns following result:

 Found    133 irreducible k-points:

 Following reciprocal coordinates:
            Coordinates               Weight
  0.000000  0.000000  0.000000      1.000000
  0.083333 -0.000000  0.000000      6.000000
  0.166667 -0.000000  0.000000      6.000000
  0.250000  0.000000  0.000000      6.000000
  0.333333 -0.000000  0.000000      6.000000
  0.416667  0.000000  0.000000      6.000000
  0.500000  0.000000  0.000000      3.000000
  0.166667  0.083333  0.000000      6.000000
  0.250000  0.083333  0.000000     12.000000
  0.333333  0.083333  0.000000     12.000000
  0.416667  0.083333  0.000000     12.000000
  0.500000  0.083333  0.000000     12.000000
  0.333333  0.166667  0.000000      6.000000
  0.416667  0.166667  0.000000     12.000000
  0.500000  0.166667  0.000000     12.000000
 -0.416667  0.166667  0.000000      6.000000
  0.500000  0.250000  0.000000      6.000000
 -0.416667  0.250000  0.000000     12.000000
 -0.333333  0.333333  0.000000      2.000000
  0.000000  0.000000  0.083333      2.000000
  0.083333  0.000000  0.083333     12.000000
  0.166667 -0.000000  0.083333     12.000000
  0.250000  0.000000  0.083333     12.000000
  0.333333 -0.000000  0.083333     12.000000
  0.416667  0.000000  0.083333     12.000000
  0.500000  0.000000  0.083333      6.000000
  0.166667  0.083333  0.083333     12.000000
  0.250000  0.083333  0.083333     24.000000
  0.333333  0.083333  0.083333     24.000000
  0.416667  0.083333  0.083333     24.000000
  0.500000  0.083333  0.083333     24.000000
  0.333333  0.166667  0.083333     12.000000
  0.416667  0.166667  0.083333     24.000000
  0.500000  0.166667  0.083333     24.000000
 -0.416667  0.166667  0.083333     12.000000
  0.500000  0.250000  0.083333     12.000000
 -0.416667  0.250000  0.083333     24.000000
 -0.333333  0.333333  0.083333      4.000000
 -0.000000 -0.000000  0.166667      2.000000
  0.083333  0.000000  0.166667     12.000000
  0.166667 -0.000000  0.166667     12.000000
  0.250000  0.000000  0.166667     12.000000
  0.333333  0.000000  0.166667     12.000000
  0.416667  0.000000  0.166667     12.000000
  0.500000  0.000000  0.166667      6.000000
  0.166667  0.083333  0.166667     12.000000
  0.250000  0.083333  0.166667     24.000000
  0.333333  0.083333  0.166667     24.000000
  0.416667  0.083333  0.166667     24.000000
  0.500000  0.083333  0.166667     24.000000
  0.333333  0.166667  0.166667     12.000000
  0.416667  0.166667  0.166667     24.000000
  0.500000  0.166667  0.166667     24.000000
 -0.416667  0.166667  0.166667     12.000000
  0.500000  0.250000  0.166667     12.000000
 -0.416667  0.250000  0.166667     24.000000
 -0.333333  0.333333  0.166667      4.000000
 -0.000000 -0.000000  0.250000      2.000000
  0.083333 -0.000000  0.250000     12.000000
  0.166667 -0.000000  0.250000     12.000000
[...]
  0.333333 -0.000000  0.500000      6.000000
  0.416667  0.000000  0.500000      6.000000
  0.500000  0.000000  0.500000      3.000000
  0.166667  0.083333  0.500000      6.000000
  0.250000  0.083333  0.500000     12.000000
  0.333333  0.083333  0.500000     12.000000
  0.416667  0.083333  0.500000     12.000000
  0.500000  0.083333  0.500000     12.000000
  0.333333  0.166667  0.500000      6.000000
  0.416667  0.166667  0.500000     12.000000
  0.500000  0.166667  0.500000     12.000000
 -0.416667  0.166667  0.500000      6.000000
  0.500000  0.250000  0.500000      6.000000
 -0.416667  0.250000  0.500000     12.000000
 -0.333333  0.333333  0.500000      2.000000

 Following cartesian coordinates:
            Coordinates               Weight
  0.000000  0.000000  0.000000      1.000000
  0.030173 -0.017420  0.000000      6.000000
  0.060346 -0.034841  0.000000      6.000000
  0.090518 -0.052261  0.000000      6.000000
  0.120691 -0.069681  0.000000      6.000000
  0.150864 -0.087101  0.000000      6.000000
  0.181037 -0.104522  0.000000      3.000000
  0.060346  0.000000  0.000000      6.000000
  0.090518 -0.017420  0.000000     12.000000
  0.120691 -0.034841  0.000000     12.000000
  0.150864 -0.052261  0.000000     12.000000
  0.181037 -0.069681  0.000000     12.000000
  0.120691 -0.000000  0.000000      6.000000
  0.150864 -0.017420  0.000000     12.000000
  0.181037 -0.034841  0.000000     12.000000
 -0.150864  0.156782  0.000000      6.000000
  0.181037 -0.000000  0.000000      6.000000
 -0.150864  0.191623  0.000000     12.000000
 -0.120691  0.209043  0.000000      2.000000
 -0.000000 -0.000000  0.018858      2.000000
  0.030173 -0.017420  0.018858     12.000000
  0.060346 -0.034841  0.018858     12.000000
  0.090518 -0.052261  0.018858     12.000000
  0.120691 -0.069681  0.018858     12.000000
  0.150864 -0.087101  0.018858     12.000000
  0.181037 -0.104522  0.018858      6.000000
  0.060346  0.000000  0.018858     12.000000
  0.090518 -0.017420  0.018858     24.000000
  0.120691 -0.034841  0.018858     24.000000
  0.150864 -0.052261  0.018858     24.000000
  0.181037 -0.069681  0.018858     24.000000
  0.120691 -0.000000  0.018858     12.000000
  0.150864 -0.017420  0.018858     24.000000
  0.181037 -0.034841  0.018858     24.000000
 -0.150864  0.156782  0.018858     12.000000
  0.181037 -0.000000  0.018858     12.000000
 -0.150864  0.191623  0.018858     24.000000
 -0.120691  0.209043  0.018858      4.000000
 -0.000000 -0.000000  0.037715      2.000000
  0.030173 -0.017420  0.037715     12.000000
  0.060346 -0.034841  0.037715     12.000000
  0.090518 -0.052261  0.037715     12.000000
  0.120691 -0.069681  0.037715     12.000000
  0.150864 -0.087101  0.037715     12.000000
  0.181037 -0.104522  0.037715      6.000000
  0.060346  0.000000  0.037715     12.000000
  0.090518 -0.017420  0.037715     24.000000
  0.120691 -0.034841  0.037715     24.000000
  0.150864 -0.052261  0.037715     24.000000
  0.181037 -0.069681  0.037715     24.000000
  0.120691 -0.000000  0.037715     12.000000
  0.150864 -0.017420  0.037715     24.000000
  0.181037 -0.034841  0.037715     24.000000
 -0.150864  0.156782  0.037715     12.000000
  0.181037 -0.000000  0.037715     12.000000
 -0.150864  0.191623  0.037715     24.000000
 -0.120691  0.209043  0.037715      4.000000
[...]
  -0.41666667  0.16666667  0.08333333       0.007
   0.50000000  0.25000000  0.08333333       0.007
  -0.41666667  0.25000000  0.08333333       0.014
  -0.33333333  0.33333333  0.08333333       0.002
  -0.00000000 -0.00000000  0.16666667       0.001
   0.08333333  0.00000000  0.16666667       0.007
   0.16666667 -0.00000000  0.16666667       0.007
   0.25000000  0.00000000  0.16666667       0.007
   0.33333333  0.00000000  0.16666667       0.007
   0.41666667  0.00000000  0.16666667       0.007
   0.50000000  0.00000000  0.16666667       0.003
   0.16666667  0.08333333  0.16666667       0.007
   0.25000000  0.08333333  0.16666667       0.014
   0.33333333  0.08333333  0.16666667       0.014
   0.41666667  0.08333333  0.16666667       0.014
   0.50000000  0.08333333  0.16666667       0.014
   0.33333333  0.16666667  0.16666667       0.007
   0.41666667  0.16666667  0.16666667       0.014
   0.50000000  0.16666667  0.16666667       0.014
  -0.41666667  0.16666667  0.16666667       0.007
   0.50000000  0.25000000  0.16666667       0.007
  -0.41666667  0.25000000  0.16666667       0.014
  -0.33333333  0.33333333  0.16666667       0.002
  -0.00000000 -0.00000000  0.25000000       0.001
   0.08333333 -0.00000000  0.25000000       0.007
   0.16666667 -0.00000000  0.25000000       0.007
[...]
   0.33333333 -0.00000000  0.50000000       0.003
   0.41666667  0.00000000  0.50000000       0.003
   0.50000000  0.00000000  0.50000000       0.002
   0.16666667  0.08333333  0.50000000       0.003
   0.25000000  0.08333333  0.50000000       0.007
   0.33333333  0.08333333  0.50000000       0.007
   0.41666667  0.08333333  0.50000000       0.007
   0.50000000  0.08333333  0.50000000       0.007
   0.33333333  0.16666667  0.50000000       0.003
   0.41666667  0.16666667  0.50000000       0.007
   0.50000000  0.16666667  0.50000000       0.007
  -0.41666667  0.16666667  0.50000000       0.003
   0.50000000  0.25000000  0.50000000       0.003
  -0.41666667  0.25000000  0.50000000       0.007
  -0.33333333  0.33333333  0.50000000       0.001

 position of ions in fractional coordinates (direct lattice)
   0.00000000  0.00000000  0.00000000
   0.33333333  0.33333333  0.50000000

 position of ions in cartesian coordinates  (Angst):
   0.00000000  0.00000000  0.00000000
   1.38093500  0.79728319  2.20952500

 k-point     1 :   0.0000 0.0000 0.0000  plane waves:     403
 k-point     2 :   0.0833-0.0000 0.0000  plane waves:     409
 k-point     3 :   0.1667-0.0000 0.0000  plane waves:     411
 k-point     4 :   0.2500 0.0000 0.0000  plane waves:     423
 k-point     5 :   0.3333-0.0000 0.0000  plane waves:     423
 k-point     6 :   0.4167 0.0000 0.0000  plane waves:     426
 k-point     7 :   0.5000 0.0000 0.0000  plane waves:     428
 k-point     8 :   0.1667 0.0833 0.0000  plane waves:     413
 k-point     9 :   0.2500 0.0833 0.0000  plane waves:     419
 k-point    10 :   0.3333 0.0833 0.0000  plane waves:     419
 k-point    11 :   0.4167 0.0833 0.0000  plane waves:     421
 k-point    12 :   0.5000 0.0833 0.0000  plane waves:     432
 k-point    13 :   0.3333 0.1667 0.0000  plane waves:     418
 k-point    14 :   0.4167 0.1667 0.0000  plane waves:     416
 k-point    15 :   0.5000 0.1667 0.0000  plane waves:     419
 k-point    16 :  -0.4167 0.1667 0.0000  plane waves:     422
 k-point    17 :   0.5000 0.2500 0.0000  plane waves:     426
 k-point    18 :  -0.4167 0.2500 0.0000  plane waves:     426
 k-point    19 :  -0.3333 0.3333 0.0000  plane waves:     438
 k-point    20 :   0.0000 0.0000 0.0833  plane waves:     403
 k-point    21 :   0.0833 0.0000 0.0833  plane waves:     412
 k-point    22 :   0.1667-0.0000 0.0833  plane waves:     415
 k-point    23 :   0.2500 0.0000 0.0833  plane waves:     417
 k-point    24 :   0.3333-0.0000 0.0833  plane waves:     427
 k-point    25 :   0.4167 0.0000 0.0833  plane waves:     426
 k-point    26 :   0.5000 0.0000 0.0833  plane waves:     426
 k-point    27 :   0.1667 0.0833 0.0833  plane waves:     416
 k-point    28 :   0.2500 0.0833 0.0833  plane waves:     418
 k-point    29 :   0.3333 0.0833 0.0833  plane waves:     418
 k-point    30 :   0.4167 0.0833 0.0833  plane waves:     426
 k-point    31 :   0.5000 0.0833 0.0833  plane waves:     427
 k-point    32 :   0.3333 0.1667 0.0833  plane waves:     418
 k-point    33 :   0.4167 0.1667 0.0833  plane waves:     415
 k-point    34 :   0.5000 0.1667 0.0833  plane waves:     423
 k-point    35 :  -0.4167 0.1667 0.0833  plane waves:     426
 k-point    36 :   0.5000 0.2500 0.0833  plane waves:     422
 k-point    37 :  -0.4167 0.2500 0.0833  plane waves:     425
 k-point    38 :  -0.3333 0.3333 0.0833  plane waves:     423
 k-point    39 :  -0.0000-0.0000 0.1667  plane waves:     415
 k-point    40 :   0.0833 0.0000 0.1667  plane waves:     416
 k-point    41 :   0.1667-0.0000 0.1667  plane waves:     416
 k-point    42 :   0.2500 0.0000 0.1667  plane waves:     420
 k-point    43 :   0.3333 0.0000 0.1667  plane waves:     417
 k-point    44 :   0.4167 0.0000 0.1667  plane waves:     422
 k-point    45 :   0.5000 0.0000 0.1667  plane waves:     422
 k-point    46 :   0.1667 0.0833 0.1667  plane waves:     418
 k-point    47 :   0.2500 0.0833 0.1667  plane waves:     418
 k-point    48 :   0.3333 0.0833 0.1667  plane waves:     423
 k-point    49 :   0.4167 0.0833 0.1667  plane waves:     422
 k-point    50 :   0.5000 0.0833 0.1667  plane waves:     426
 k-point    51 :   0.3333 0.1667 0.1667  plane waves:     421
 k-point    52 :   0.4167 0.1667 0.1667  plane waves:     418
 k-point    53 :   0.5000 0.1667 0.1667  plane waves:     422
 k-point    54 :  -0.4167 0.1667 0.1667  plane waves:     425
 k-point    55 :   0.5000 0.2500 0.1667  plane waves:     420
 k-point    56 :  -0.4167 0.2500 0.1667  plane waves:     423
 k-point    57 :  -0.3333 0.3333 0.1667  plane waves:     420
 k-point    58 :  -0.0000-0.0000 0.2500  plane waves:     415
 k-point    59 :   0.0833-0.0000 0.2500  plane waves:     420
 k-point    60 :   0.1667-0.0000 0.2500  plane waves:     417
[...]
 k-point   119 :   0.3333-0.0000 0.5000  plane waves:     420
 k-point   120 :   0.4167 0.0000 0.5000  plane waves:     426
 k-point   121 :   0.5000 0.0000 0.5000  plane waves:     428
 k-point   122 :   0.1667 0.0833 0.5000  plane waves:     416
 k-point   123 :   0.2500 0.0833 0.5000  plane waves:     414
 k-point   124 :   0.3333 0.0833 0.5000  plane waves:     418
 k-point   125 :   0.4167 0.0833 0.5000  plane waves:     420
 k-point   126 :   0.5000 0.0833 0.5000  plane waves:     420
 k-point   127 :   0.3333 0.1667 0.5000  plane waves:     424
 k-point   128 :   0.4167 0.1667 0.5000  plane waves:     424
 k-point   129 :   0.5000 0.1667 0.5000  plane waves:     420
 k-point   130 :  -0.4167 0.1667 0.5000  plane waves:     416
 k-point   131 :   0.5000 0.2500 0.5000  plane waves:     424
 k-point   132 :  -0.4167 0.2500 0.5000  plane waves:     424
 k-point   133 :  -0.3333 0.3333 0.5000  plane waves:     432

 maximum and minimum number of plane-waves per node :       438      403

 maximum number of plane-waves:       438
 maximum index in each direction:
   IXMAX=    4   IYMAX=    4   IZMAX=    6
   IXMIN=   -4   IYMIN=   -4   IZMIN=   -7

 serial   3D FFT for wavefunctions
 parallel 3D FFT for charge:
    minimum data exchange during FFTs selected (reduces bandwidth)

 Broyden mixing: mesh for mixing (old mesh)
   NGX =  9   NGY =  9   NGZ = 13
  (NGX  = 28   NGY  = 28   NGZ  = 40)
  gives a total of   1053 points

 charge density for first step will be calculated from the start-wavefunctions

 Maximum index for augmentation-charges          341 (set IRDMAX)

 initial charge from wavefunction
 First call to EWALD:  gamma=   0.576
 Maximum number of real-space cells 3x 3x 2
 Maximum number of reciprocal cells 3x 3x 4

--------------------------------------- Ionic step        1  -------------------------------------------

--------------------------------------- Iteration      1(   1)  ---------------------------------------

 eigenvalue-minimisations  :  7104
 total energy-change (2. order) :-0.2070614E+02  (-0.6303409E-06)
 number of electron      25.9999965 magnetization
 augmentation part        6.4077362 magnetization

 Broyden mixing:
  rms(total) = 0.21915E-03    rms(broyden)= 0.21847E-03
  rms(prec ) = 0.38818E-03
  weight for this iteration     100.00

 Free energy of the ion-electron system (eV)
  alpha Z        PSCENC =       209.05504443
  Ewald energy   TEWEN  =     -2875.79382814
  -Hartree energ DENC   =      -401.15752606
  -exchange      EXHF   =         0.00000000
  -V(xc)+E(xc)   XCENC  =        96.66127307
  PAW double counting   =      3468.66202845    -3457.93277390
  entropy T*S    EENTRO =        -0.00243307
  eigenvalues    EBANDS =      -180.47136914
  atomic energy  EATOM  =      3120.27344897
  Solvation  Ediel_sol  =         0.00000000
  free energy    TOTEN  =       -20.70613540 eV

  energy without entropy =      -20.70370232  energy(sigma->0) =      -20.70491886

--------------------------------------- Iteration      1(   2)  ---------------------------------------

 eigenvalue-minimisations  :  6528
 total energy-change (2. order) :-0.1854460E-07  (-0.1876582E-07)
 number of electron      25.9999965 magnetization
 augmentation part        6.4077362 magnetization

 Free energy of the ion-electron system (eV)
  alpha Z        PSCENC =       209.05504443
  Ewald energy   TEWEN  =     -2875.79382814
  -Hartree energ DENC   =      -401.15897371
  -exchange      EXHF   =         0.00000000
  -V(xc)+E(xc)   XCENC  =        96.66133701
  PAW double counting   =      3468.62837129    -3457.89844204
  entropy T*S    EENTRO =        -0.00243307
  eigenvalues    EBANDS =      -180.47066014
  atomic energy  EATOM  =      3120.27344897
  Solvation  Ediel_sol  =         0.00000000
  free energy    TOTEN  =       -20.70613542 eV

  energy without entropy =      -20.70370234  energy(sigma->0) =      -20.70491888

 average (electrostatic) potential at core
  the test charge radii are     1.0929
  (the norm of the test charge is              1.0000)
       1 -67.3650       2 -67.3650

 E-fermi :  12.3183     XC(G=0): -13.6816     alpha+bet :-19.9435

 val. band max:       12.3079205586   @ k =   0.2500   0.0833   0.1667
 cond. band min:      12.3219467049   @ k =   0.3333  -0.0000   0.5000
 fundamental gap:      0.0140261462
 Fermi energy:        12.3183251765

 k-point     1 :       0.0000    0.0000    0.0000
  band No.  band energies     occupation
      1     -27.0761      2.00000
      2     -26.0385      2.00000
      3     -26.0384      2.00000
      4     -25.8604      2.00000
      5     -25.8604      2.00000
      6     -25.8202      2.00000
      7       5.0760      2.00000
      8       7.0202      2.00000
      9      10.8204      2.00000
     10      10.8204      2.00000
     11      10.9111      2.00000
     12      11.5227      2.00000
     13      11.5227      2.00000
     14      12.1850      1.99984
     15      12.1850      1.99984
     16      13.9618      0.00000
     17      14.7844      0.00000
     18      14.7844      0.00000
     19      23.1418      0.00000
     20      26.6017      0.00000
     21      28.7898      0.00000
     22      29.7078      0.00000
     23      34.5162      0.00000
     24      34.5162      0.00000
     25      34.7609      0.00000
     26      34.7609      0.00000
     27      36.1606      0.00000
     28      38.2104      0.00000
     29      38.2104      0.00000
     30      39.1860      0.00000
     31      39.1902      0.00000
     32      41.1301      0.00000
     33      41.1301      0.00000
     34      44.8391      0.00000
     35      45.3797      0.00000
     36      49.2481      0.00000
     37      49.2481      0.00000
     38      50.4805      0.00000
     39      50.4805      0.00000
     40      51.0552      0.00000
     41      54.7931      0.00000
     42      56.8595      0.00000
     43      56.8595      0.00000
     44      57.0304      0.00000
     45      57.0304      0.00000
     46      57.2550      0.00000
     47      60.9539      0.00000
     48      60.9539      0.00000

[...]

 k-point   133 :      -0.3333    0.3333    0.5000
  band No.  band energies     occupation
      1     -26.8203      2.00000
      2     -26.8203      2.00000
      3     -26.5511      2.00000
      4     -26.5510      2.00000
      5     -26.0432      2.00000
      6     -26.0432      2.00000
      7       8.5880      2.00000
      8       8.5880      2.00000
      9       9.1309      2.00000
     10       9.1309      2.00000
     11      10.5819      2.00000
     12      10.5819      2.00000
     13      12.2371      1.97835
     14      12.2371      1.97834
     15      14.8492      0.00000
     16      14.8492      0.00000
     17      21.4465      0.00000
     18      21.4465      0.00000
     19      23.7621      0.00000
     20      23.7621      0.00000
     21      24.1287      0.00000
     22      24.1287      0.00000
     23      32.5222      0.00000
     24      32.5222      0.00000
     25      33.0887      0.00000
     26      33.0887      0.00000
     27      36.0878      0.00000
     28      36.0878      0.00000
     29      39.1870      0.00000
     30      39.1870      0.00000
     31      42.4998      0.00000
     32      42.4998      0.00000
     33      43.6553      0.00000
     34      43.6553      0.00000
     35      47.8597      0.00000
     36      47.8597      0.00000
     37      51.4627      0.00000
     38      51.4627      0.00000
     39      53.7005      0.00000
     40      53.7005      0.00000
     41      53.8170      0.00000
     42      53.8170      0.00000
     43      53.8180      0.00000
     44      53.8180      0.00000
     45      56.6015      0.00000
     46      56.6015      0.00000
     47      58.8570      0.00000
     48      58.8570      0.00000

 soft charge-density along one line, spin component           1
         0         1         2         3         4         5         6         7         8         9
 total charge-density along one line

------------------------ aborting loop because EDIFF is reached ----------------------------------------

  FORCE on cell =-STRESS in cart. coord.  units (eV):
  Direction    XX          YY          ZZ          XY          YZ          ZX
  Alpha Z   209.05504   209.05504   209.05504
  Ewald    -967.18508  -967.18508  -941.42566    -0.00000     0.00000     0.00000
  Hartree   130.05610   130.05610   141.04769     0.00000    -0.00000    -0.00000
  E(xc)    -124.26476  -124.26477  -124.23655     0.00001    -0.00000    -0.00000
  Local     254.03919   254.03916   217.96335     0.00003    -0.00001    -0.00002
  n-local   -87.63903   -62.49041   -74.19779     7.04331    -1.03212     1.71896
  augment    92.32869    92.32864    92.01367     0.00004     0.00000     0.00001
  Kinetic   472.34722   487.98068   479.01532     4.28620    -1.92698    -1.17641
  Fock        0.00000     0.00000     0.00000     0.00000     0.00000     0.00000
  Total      -0.87163    -0.87163    -0.76494    -0.00000    -0.00000    -0.00000
  in kB     -47.83855   -47.83855   -41.98284    -0.00000    -0.00000    -0.00000

 VOLUME and BASIS-vectors are now :
  energy-cutoff  :      342.58
  volume of cell :       29.19
      direct lattice vectors                 reciprocal lattice vectors
     2.761870000  0.000000000  0.000000000     0.362073523 -0.209043246  0.000000000
     1.380935000  2.391849582  0.000000000     0.000000000  0.418086492  0.000000000
     0.000000000  0.000000000  4.419050000    -0.000000000 -0.000000000  0.226292982

  length of vectors
     2.761870000  2.761870000  4.419050000     0.418086492  0.418086492  0.226292982

 FORCES acting on ions
    electron-ion (+dipol)            ewald-force                    non-local-force                 convergence-correction
   0.666E-07 0.385E-07 0.111E-07   0.189E-11 0.110E-11 -.469E-13   -.326E-17 -.531E-19 -.216E-17   -.461E-08 -.266E-08 0.127E-12
   -.520E-06 -.300E-06 0.293E-06   -.189E-11 -.110E-11 0.469E-13   0.346E-17 0.755E-19 0.922E-18   0.460E-08 0.266E-08 -.499E-13
   -.453E-06 -.262E-06 0.304E-06   -.422E-14 -.221E-14 -.188E-16   0.202E-18 0.224E-19 -.124E-17   -.647E-11 -.374E-11 0.768E-13

 POSITION                                       TOTAL-FORCE (eV/Angst)
      0.00000      0.00000      0.00000        -0.000000     -0.000000      0.000000
      1.38094      0.79728      2.20953         0.000000      0.000000     -0.000000
    total drift:                               -0.000000     -0.000000      0.000000

  FREE ENERGIE OF THE ION-ELECTRON SYSTEM (eV)
  free  energy   TOTEN  =       -20.70613542 eV

  energy  without entropy=      -20.70370234  energy(sigma->0) =      -20.70491888

 writing wavefunctions