 vasp.6.4.3 19Mar24 (build Jun 26 2024 13:02:28) complex

 executed on             LinuxIFC date 2025.08.08  19:13:20

 INCAR:
   ENCUT = 298.86740000000003
   IBRION = -1
   ISMEAR = 0
   ISYM = 2
   LCHARG = True
   LWAVE = True
   SIGMA = 0.05
   SYSTEM = Zr

 POTCAR:  PAW_PBE Zr_sv 04Jan2005
|           W    W    AA    RRRRR   N    N  II  N    N   GGGG   !!!           |
|           W    W   A  A   R    R  NN   N  II  NN   N  G    G  !!!           |
|           W    W  A    A  R    R  N N  N  II  N N  N  G       !!!           |
|           W WW W  AAAAAA  RRRRR   N  N N  II  N  N N  G  GGG   !            |
|           WW  WW  A    A  R   R   N   NN  II  N   NN  G    G                |
|           W    W  A    A  R    R  N    N  II  N    N   GGGG   !!!           |
|     For optimal performance we recommend to set                             |
|       NCORE = 2 up to number-of-cores-per-socket                            |
|     This setting can greatly improve the performance of VASP for DFT.       |
|     The default, NCORE=1 might be grossly inefficient on modern             |
|     multi-core architectures or massively parallel machines. Do your        |
|     Unfortunately you need to use the default for GW and RPA                |
|     calculations (for HF NCORE is supported but not extensively tested      |
|     yet).                                                                   |

 POTCAR:  PAW_PBE Zr_sv 04Jan2005
   VRHFIN =Zr: 4s4p5s4d

   TITEL  = PAW_PBE Zr_sv 04Jan2005
   POMASS =   91.224; ZVAL   =   12.000    mass and valenz
   ENMAX  =  229.898; ENMIN  =  172.424 eV

PAW_PBE Zr_sv 04Jan2005                 :

 POSCAR: Zr2
  positions in direct lattice

 exchange-correlation table for PE
   RHO(1)=    0.500       N(1)  =     2000
   RHO(2)=  100.500       N(2)  =     4000

 ion  position               nearest neighbor table
   1  0.000  0.000  0.000-   2 3.20   2 3.20   2 3.20   2 3.20   2 3.20   2 3.20
   2  0.333  0.333  0.500-   1 3.20   1 3.20   1 3.20   1 3.20   1 3.20   1 3.20

  LATTYP: Found a hexagonal cell.
 ALAT       =     3.2360300000
 C/A-ratio  =     1.6036717830

  Lattice vectors:

 A1 = (  -1.6180150000,  -2.8024841874,   0.0000000000)
 A2 = (   3.2360300000,   0.0000000000,   0.0000000000)
 A3 = (   0.0000000000,   0.0000000000,   5.1895300000)

Analysis of symmetry for initial positions (statically):
 Subroutine PRICEL returns:
 Original cell was already a primitive cell.

 Routine SETGRP: Setting up the symmetry group for a
 hexagonal supercell.

 Subroutine GETGRP returns: Found 24 space group operations
 (whereof 12 operations were pure point group operations)
 out of a pool of 24 trial point group operations.

The static configuration has the point symmetry D_3h.
 The point group associated with its full space group is D_6h.

Analysis of symmetry for dynamics (positions and initial velocities):
 Subroutine PRICEL returns:
 Original cell was already a primitive cell.

 Routine SETGRP: Setting up the symmetry group for a
 hexagonal supercell.

 Subroutine GETGRP returns: Found 24 space group operations
 (whereof 12 operations were pure point group operations)
 out of a pool of 24 trial point group operations.

The dynamic configuration has the point symmetry D_3h.
 The point group associated with its full space group is D_6h.

 Subroutine INISYM returns: Found 24 space group operations
 (whereof 12 operations are pure point group operations),
 and found     1 'primitive' translations

                                     Primitive cell

  volume of cell :      47.0634

  direct lattice vectors                    reciprocal lattice vectors
     3.236030000  0.000000000  0.000000000     0.309020621 -0.178413139  0.000000000
     1.618015000  2.802484187  0.000000000     0.000000000  0.356826277  0.000000000
     0.000000000  0.000000000  5.189530000    -0.000000000 -0.000000000  0.192695678

  length of vectors
     3.236030000  3.236030000  5.189530000     0.356826277  0.356826277  0.192695678

  position of ions in fractional coordinates (direct lattice)
     0.000000000  0.000000000  0.000000000
     0.333333333  0.333333333  0.500000000

  ion indices of the primitive-cell ions
   primitive index   ion index
                 1           1
                 2           2

 KPOINTS: Automatic kpoint scheme

Automatic generation of k-mesh.
 Grid dimensions read from file:
 generate k-points for:   12   12   12

 Generating k-lattice:

  Cartesian coordinates                     Fractional coordinates (reciprocal lattice)
     0.025751718 -0.014867762  0.000000000     0.083333333  0.000000000  0.000000000
     0.000000000  0.029735523  0.000000000     0.000000000  0.083333333  0.000000000
    -0.000000000 -0.000000000  0.016057973     0.000000000  0.000000000  0.083333333

  Length of vectors
     0.029735523  0.029735523  0.016057973

  Shift w.r.t. Gamma in fractional coordinates (k-lattice)
     0.000000000  0.000000000  0.000000000

 Subroutine IBZKPT returns following result:

 Found    133 irreducible k-points:

 Following reciprocal coordinates:
            Coordinates               Weight
  0.000000  0.000000  0.000000      1.000000
  0.083333 -0.000000  0.000000      6.000000
  0.166667  0.000000  0.000000      6.000000
  0.250000 -0.000000  0.000000      6.000000
  0.333333 -0.000000  0.000000      6.000000
  0.416667 -0.000000  0.000000      6.000000
  0.500000 -0.000000  0.000000      3.000000
  0.166667  0.083333  0.000000      6.000000
  0.250000  0.083333  0.000000     12.000000
  0.333333  0.083333  0.000000     12.000000
  0.416667  0.083333  0.000000     12.000000
  0.500000  0.083333  0.000000     12.000000
  0.333333  0.166667  0.000000      6.000000
  0.416667  0.166667  0.000000     12.000000
  0.500000  0.166667  0.000000     12.000000
 -0.416667  0.166667  0.000000      6.000000
  0.500000  0.250000  0.000000      6.000000
 -0.416667  0.250000  0.000000     12.000000
 -0.333333  0.333333  0.000000      2.000000
  0.000000 -0.000000  0.083333      2.000000
  0.083333 -0.000000  0.083333     12.000000
  0.166667  0.000000  0.083333     12.000000
  0.250000 -0.000000  0.083333     12.000000
  0.333333 -0.000000  0.083333     12.000000
  0.416667 -0.000000  0.083333     12.000000
  0.500000 -0.000000  0.083333      6.000000
  0.166667  0.083333  0.083333     12.000000
  0.250000  0.083333  0.083333     24.000000
  0.333333  0.083333  0.083333     24.000000
  0.416667  0.083333  0.083333     24.000000
  0.500000  0.083333  0.083333     24.000000
  0.333333  0.166667  0.083333     12.000000
  0.416667  0.166667  0.083333     24.000000
  0.500000  0.166667  0.083333     24.000000
 -0.416667  0.166667  0.083333     12.000000
  0.500000  0.250000  0.083333     12.000000
 -0.416667  0.250000  0.083333     24.000000
 -0.333333  0.333333  0.083333      4.000000
  0.000000 -0.000000  0.166667      2.000000
  0.083333 -0.000000  0.166667     12.000000
  0.166667  0.000000  0.166667     12.000000
  0.250000 -0.000000  0.166667     12.000000
  0.333333 -0.000000  0.166667     12.000000
  0.416667 -0.000000  0.166667     12.000000
  0.500000 -0.000000  0.166667      6.000000
  0.166667  0.083333  0.166667     12.000000
  0.250000  0.083333  0.166667     24.000000
  0.333333  0.083333  0.166667     24.000000
  0.416667  0.083333  0.166667     24.000000
  0.500000  0.083333  0.166667     24.000000
  0.333333  0.166667  0.166667     12.000000
  0.416667  0.166667  0.166667     24.000000
  0.500000  0.166667  0.166667     24.000000
 -0.416667  0.166667  0.166667     12.000000
  0.500000  0.250000  0.166667     12.000000
 -0.416667  0.250000  0.166667     24.000000
 -0.333333  0.333333  0.166667      4.000000
  0.000000 -0.000000  0.250000      2.000000
  0.083333 -0.000000  0.250000     12.000000
  0.166667  0.000000  0.250000     12.000000
[...]
  0.333333  0.000000  0.500000      6.000000
  0.416667 -0.000000  0.500000      6.000000
  0.500000 -0.000000  0.500000      3.000000
  0.166667  0.083333  0.500000      6.000000
  0.250000  0.083333  0.500000     12.000000
  0.333333  0.083333  0.500000     12.000000
  0.416667  0.083333  0.500000     12.000000
  0.500000  0.083333  0.500000     12.000000
  0.333333  0.166667  0.500000      6.000000
  0.416667  0.166667  0.500000     12.000000
  0.500000  0.166667  0.500000     12.000000
 -0.416667  0.166667  0.500000      6.000000
  0.500000  0.250000  0.500000      6.000000
 -0.416667  0.250000  0.500000     12.000000
 -0.333333  0.333333  0.500000      2.000000

 Following cartesian coordinates:
            Coordinates               Weight
  0.000000  0.000000  0.000000      1.000000
  0.025752 -0.014868  0.000000      6.000000
  0.051503 -0.029736  0.000000      6.000000
  0.077255 -0.044603  0.000000      6.000000
  0.103007 -0.059471  0.000000      6.000000
  0.128759 -0.074339  0.000000      6.000000
  0.154510 -0.089207  0.000000      3.000000
  0.051503  0.000000  0.000000      6.000000
  0.077255 -0.014868  0.000000     12.000000
  0.103007 -0.029736  0.000000     12.000000
  0.128759 -0.044603  0.000000     12.000000
  0.154510 -0.059471  0.000000     12.000000
  0.103007 -0.000000  0.000000      6.000000
  0.128759 -0.014868  0.000000     12.000000
  0.154510 -0.029736  0.000000     12.000000
 -0.128759  0.133810  0.000000      6.000000
  0.154510 -0.000000  0.000000      6.000000
 -0.128759  0.163545  0.000000     12.000000
 -0.103007  0.178413  0.000000      2.000000
 -0.000000 -0.000000  0.016058      2.000000
  0.025752 -0.014868  0.016058     12.000000
  0.051503 -0.029736  0.016058     12.000000
  0.077255 -0.044603  0.016058     12.000000
  0.103007 -0.059471  0.016058     12.000000
  0.128759 -0.074339  0.016058     12.000000
  0.154510 -0.089207  0.016058      6.000000
  0.051503  0.000000  0.016058     12.000000
  0.077255 -0.014868  0.016058     24.000000
  0.103007 -0.029736  0.016058     24.000000
  0.128759 -0.044603  0.016058     24.000000
  0.154510 -0.059471  0.016058     24.000000
  0.103007 -0.000000  0.016058     12.000000
  0.128759 -0.014868  0.016058     24.000000
  0.154510 -0.029736  0.016058     24.000000
 -0.128759  0.133810  0.016058     12.000000
  0.154510 -0.000000  0.016058     12.000000
 -0.128759  0.163545  0.016058     24.000000
 -0.103007  0.178413  0.016058      4.000000
 -0.000000 -0.000000  0.032116      2.000000
  0.025752 -0.014868  0.032116     12.000000
  0.051503 -0.029736  0.032116     12.000000
  0.077255 -0.044603  0.032116     12.000000
  0.103007 -0.059471  0.032116     12.000000
  0.128759 -0.074339  0.032116     12.000000
  0.154510 -0.089207  0.032116      6.000000
  0.051503  0.000000  0.032116     12.000000
  0.077255 -0.014868  0.032116     24.000000
  0.103007 -0.029736  0.032116     24.000000
  0.128759 -0.044603  0.032116     24.000000
  0.154510 -0.059471  0.032116     24.000000
  0.103007 -0.000000  0.032116     12.000000
  0.128759 -0.014868  0.032116     24.000000
  0.154510 -0.029736  0.032116     24.000000
 -0.128759  0.133810  0.032116     12.000000
  0.154510 -0.000000  0.032116     12.000000
 -0.128759  0.163545  0.032116     24.000000
 -0.103007  0.178413  0.032116      4.000000
[...]
  -0.41666667  0.16666667  0.08333333       0.007
   0.50000000  0.25000000  0.08333333       0.007
  -0.41666667  0.25000000  0.08333333       0.014
  -0.33333333  0.33333333  0.08333333       0.002
   0.00000000 -0.00000000  0.16666667       0.001
   0.08333333 -0.00000000  0.16666667       0.007
   0.16666667  0.00000000  0.16666667       0.007
   0.25000000 -0.00000000  0.16666667       0.007
   0.33333333 -0.00000000  0.16666667       0.007
   0.41666667 -0.00000000  0.16666667       0.007
   0.50000000 -0.00000000  0.16666667       0.003
   0.16666667  0.08333333  0.16666667       0.007
   0.25000000  0.08333333  0.16666667       0.014
   0.33333333  0.08333333  0.16666667       0.014
   0.41666667  0.08333333  0.16666667       0.014
   0.50000000  0.08333333  0.16666667       0.014
   0.33333333  0.16666667  0.16666667       0.007
   0.41666667  0.16666667  0.16666667       0.014
   0.50000000  0.16666667  0.16666667       0.014
  -0.41666667  0.16666667  0.16666667       0.007
   0.50000000  0.25000000  0.16666667       0.007
  -0.41666667  0.25000000  0.16666667       0.014
  -0.33333333  0.33333333  0.16666667       0.002
   0.00000000 -0.00000000  0.25000000       0.001
   0.08333333 -0.00000000  0.25000000       0.007
   0.16666667  0.00000000  0.25000000       0.007
[...]
   0.33333333  0.00000000  0.50000000       0.003
   0.41666667 -0.00000000  0.50000000       0.003
   0.50000000 -0.00000000  0.50000000       0.002
   0.16666667  0.08333333  0.50000000       0.003
   0.25000000  0.08333333  0.50000000       0.007
   0.33333333  0.08333333  0.50000000       0.007
   0.41666667  0.08333333  0.50000000       0.007
   0.50000000  0.08333333  0.50000000       0.007
   0.33333333  0.16666667  0.50000000       0.003
   0.41666667  0.16666667  0.50000000       0.007
   0.50000000  0.16666667  0.50000000       0.007
  -0.41666667  0.16666667  0.50000000       0.003
   0.50000000  0.25000000  0.50000000       0.003
  -0.41666667  0.25000000  0.50000000       0.007
  -0.33333333  0.33333333  0.50000000       0.001

 position of ions in fractional coordinates (direct lattice)
   0.00000000  0.00000000  0.00000000
   0.33333333  0.33333333  0.50000000

 position of ions in cartesian coordinates  (Angst):
   0.00000000  0.00000000  0.00000000
   1.61801500  0.93416140  2.59476500

 k-point     1 :   0.0000 0.0000 0.0000  plane waves:     549
 k-point     2 :   0.0833-0.0000 0.0000  plane waves:     562
 k-point     3 :   0.1667 0.0000 0.0000  plane waves:     562
 k-point     4 :   0.2500-0.0000 0.0000  plane waves:     572
 k-point     5 :   0.3333-0.0000 0.0000  plane waves:     552
 k-point     6 :   0.4167-0.0000 0.0000  plane waves:     552
 k-point     7 :   0.5000-0.0000 0.0000  plane waves:     556
 k-point     8 :   0.1667 0.0833 0.0000  plane waves:     569
 k-point     9 :   0.2500 0.0833 0.0000  plane waves:     563
 k-point    10 :   0.3333 0.0833 0.0000  plane waves:     558
 k-point    11 :   0.4167 0.0833 0.0000  plane waves:     546
 k-point    12 :   0.5000 0.0833 0.0000  plane waves:     550
 k-point    13 :   0.3333 0.1667 0.0000  plane waves:     555
 k-point    14 :   0.4167 0.1667 0.0000  plane waves:     546
 k-point    15 :   0.5000 0.1667 0.0000  plane waves:     541
 k-point    16 :  -0.4167 0.1667 0.0000  plane waves:     544
 k-point    17 :   0.5000 0.2500 0.0000  plane waves:     549
 k-point    18 :  -0.4167 0.2500 0.0000  plane waves:     548
 k-point    19 :  -0.3333 0.3333 0.0000  plane waves:     546
 k-point    20 :   0.0000-0.0000 0.0833  plane waves:     555
 k-point    21 :   0.0833-0.0000 0.0833  plane waves:     559
 k-point    22 :   0.1667 0.0000 0.0833  plane waves:     567
 k-point    23 :   0.2500-0.0000 0.0833  plane waves:     566
 k-point    24 :   0.3333-0.0000 0.0833  plane waves:     553
 k-point    25 :   0.4167-0.0000 0.0833  plane waves:     553
 k-point    26 :   0.5000-0.0000 0.0833  plane waves:     556
 k-point    27 :   0.1667 0.0833 0.0833  plane waves:     565
 k-point    28 :   0.2500 0.0833 0.0833  plane waves:     561
 k-point    29 :   0.3333 0.0833 0.0833  plane waves:     558
 k-point    30 :   0.4167 0.0833 0.0833  plane waves:     551
 k-point    31 :   0.5000 0.0833 0.0833  plane waves:     550
 k-point    32 :   0.3333 0.1667 0.0833  plane waves:     557
 k-point    33 :   0.4167 0.1667 0.0833  plane waves:     547
 k-point    34 :   0.5000 0.1667 0.0833  plane waves:     543
 k-point    35 :  -0.4167 0.1667 0.0833  plane waves:     543
 k-point    36 :   0.5000 0.2500 0.0833  plane waves:     543
 k-point    37 :  -0.4167 0.2500 0.0833  plane waves:     546
 k-point    38 :  -0.3333 0.3333 0.0833  plane waves:     555
 k-point    39 :   0.0000-0.0000 0.1667  plane waves:     555
 k-point    40 :   0.0833-0.0000 0.1667  plane waves:     560
 k-point    41 :   0.1667 0.0000 0.1667  plane waves:     560
 k-point    42 :   0.2500-0.0000 0.1667  plane waves:     557
 k-point    43 :   0.3333-0.0000 0.1667  plane waves:     555
 k-point    44 :   0.4167-0.0000 0.1667  plane waves:     551
 k-point    45 :   0.5000-0.0000 0.1667  plane waves:     546
 k-point    46 :   0.1667 0.0833 0.1667  plane waves:     559
 k-point    47 :   0.2500 0.0833 0.1667  plane waves:     555
 k-point    48 :   0.3333 0.0833 0.1667  plane waves:     560
 k-point    49 :   0.4167 0.0833 0.1667  plane waves:     550
 k-point    50 :   0.5000 0.0833 0.1667  plane waves:     546
 k-point    51 :   0.3333 0.1667 0.1667  plane waves:     561
 k-point    52 :   0.4167 0.1667 0.1667  plane waves:     548
 k-point    53 :   0.5000 0.1667 0.1667  plane waves:     549
 k-point    54 :  -0.4167 0.1667 0.1667  plane waves:     543
 k-point    55 :   0.5000 0.2500 0.1667  plane waves:     545
 k-point    56 :  -0.4167 0.2500 0.1667  plane waves:     544
 k-point    57 :  -0.3333 0.3333 0.1667  plane waves:     549
 k-point    58 :   0.0000-0.0000 0.2500  plane waves:     561
 k-point    59 :   0.0833-0.0000 0.2500  plane waves:     557
 k-point    60 :   0.1667 0.0000 0.2500  plane waves:     557
[...]
 k-point   119 :   0.3333 0.0000 0.5000  plane waves:     556
 k-point   120 :   0.4167-0.0000 0.5000  plane waves:     550
 k-point   121 :   0.5000-0.0000 0.5000  plane waves:     544
 k-point   122 :   0.1667 0.0833 0.5000  plane waves:     558
 k-point   123 :   0.2500 0.0833 0.5000  plane waves:     556
 k-point   124 :   0.3333 0.0833 0.5000  plane waves:     558
 k-point   125 :   0.4167 0.0833 0.5000  plane waves:     550
 k-point   126 :   0.5000 0.0833 0.5000  plane waves:     550
 k-point   127 :   0.3333 0.1667 0.5000  plane waves:     556
 k-point   128 :   0.4167 0.1667 0.5000  plane waves:     552
 k-point   129 :   0.5000 0.1667 0.5000  plane waves:     554
 k-point   130 :  -0.4167 0.1667 0.5000  plane waves:     546
 k-point   131 :   0.5000 0.2500 0.5000  plane waves:     552
 k-point   132 :  -0.4167 0.2500 0.5000  plane waves:     550
 k-point   133 :  -0.3333 0.3333 0.5000  plane waves:     546

 maximum and minimum number of plane-waves per node :       572      540

 maximum number of plane-waves:       572
 maximum index in each direction:
   IXMAX=    4   IYMAX=    4   IZMAX=    7
   IXMIN=   -5   IYMIN=   -4   IZMIN=   -7

 serial   3D FFT for wavefunctions
 parallel 3D FFT for charge:
    minimum data exchange during FFTs selected (reduces bandwidth)

 Broyden mixing: mesh for mixing (old mesh)
   NGX =  9   NGY =  9   NGZ = 15
  (NGX  = 28   NGY  = 28   NGZ  = 48)
  gives a total of   1215 points

 charge density for first step will be calculated from the start-wavefunctions

 Maximum index for augmentation-charges          285 (set IRDMAX)

 initial charge from wavefunction
 First call to EWALD:  gamma=   0.491
 Maximum number of real-space cells 3x 3x 2
 Maximum number of reciprocal cells 3x 3x 4

--------------------------------------- Ionic step        1  -------------------------------------------

--------------------------------------- Iteration      1(   1)  ---------------------------------------

 eigenvalue-minimisations  :  9888
 total energy-change (2. order) :-0.1702001E+02  (-0.8434331E-05)
 number of electron      23.9999994 magnetization
 augmentation part        0.3104050 magnetization

 Broyden mixing:
  rms(total) = 0.27192E-02    rms(broyden)= 0.27190E-02
  rms(prec ) = 0.31578E-02
  weight for this iteration     100.00

 Free energy of the ion-electron system (eV)
  alpha Z        PSCENC =       112.92539506
  Ewald energy   TEWEN  =     -2089.77682910
  -Hartree energ DENC   =      -430.28606174
  -exchange      EXHF   =         0.00000000
  -V(xc)+E(xc)   XCENC  =        98.12893571
  PAW double counting   =      2791.61172517    -2751.00238594
  entropy T*S    EENTRO =        -0.00323214
  eigenvalues    EBANDS =      -316.96353176
  atomic energy  EATOM  =      2568.34597902
  Solvation  Ediel_sol  =         0.00000000
  free energy    TOTEN  =       -17.02000572 eV

  energy without entropy =      -17.01677358  energy(sigma->0) =      -17.01838965

--------------------------------------- Iteration      1(   2)  ---------------------------------------

 eigenvalue-minimisations  :  6864
 total energy-change (2. order) : 0.1365594E-05  (-0.6298098E-06)
 number of electron      23.9999994 magnetization
 augmentation part        0.3104050 magnetization

 Free energy of the ion-electron system (eV)
  alpha Z        PSCENC =       112.92539506
  Ewald energy   TEWEN  =     -2089.77682910
  -Hartree energ DENC   =      -430.32702137
  -exchange      EXHF   =         0.00000000
  -V(xc)+E(xc)   XCENC  =        98.13112877
  PAW double counting   =      2790.73335600    -2750.11737745
  entropy T*S    EENTRO =        -0.00323183
  eigenvalues    EBANDS =      -316.93140348
  atomic energy  EATOM  =      2568.34597902
  Solvation  Ediel_sol  =         0.00000000
  free energy    TOTEN  =       -17.02000436 eV

  energy without entropy =      -17.01677253  energy(sigma->0) =      -17.01838845

 average (electrostatic) potential at core
  the test charge radii are     1.0638
  (the norm of the test charge is              1.0000)
       1 -74.7551       2 -74.7551

 E-fermi :   8.8953     XC(G=0): -11.0335     alpha+bet :-15.7693

 val. band max:        8.8895472849   @ k =   0.5000   0.1667   0.3333
 cond. band min:       8.8970348301   @ k =   0.0000  -0.0000   0.5000
 fundamental gap:      0.0074875452
 Fermi energy:         8.8952723175

 k-point     1 :       0.0000    0.0000    0.0000
  band No.  band energies     occupation
      1     -39.9607      2.00000
      2     -39.8164      2.00000
      3     -18.4743      2.00000
      4     -17.6297      2.00000
      5     -17.6297      2.00000
      6     -17.5169      2.00000
      7     -17.4975      2.00000
      8     -17.4975      2.00000
      9       3.2858      2.00000
     10       5.8903      2.00000
     11       9.7542      0.00000
     12       9.7542      0.00000
     13       9.8302      0.00000
     14       9.9620      0.00000
     15      10.4217      0.00000
     16      10.4217      0.00000
     17      11.0437      0.00000
     18      11.0437      0.00000
     19      13.2704      0.00000
     20      13.2704      0.00000
     21      17.9194      0.00000
     22      19.3787      0.00000
     23      20.9628      0.00000
     24      22.1273      0.00000
     25      25.5287      0.00000
     26      25.5287      0.00000
     27      25.6299      0.00000
     28      25.6299      0.00000
     29      26.1498      0.00000
     30      28.6534      0.00000
     31      28.6534      0.00000
     32      30.6261      0.00000
     33      30.6261      0.00000
     34      32.8220      0.00000
     35      33.7051      0.00000
     36      36.9696      0.00000
     37      36.9697      0.00000
     38      37.1254      0.00000
     39      37.1254      0.00000
     40      37.4835      0.00000
     41      39.9074      0.00000
     42      41.4093      0.00000
     43      41.4093      0.00000
     44      41.4608      0.00000
     45      41.8423      0.00000
     46      41.8425      0.00000
     47      44.7009      0.00000
     48      44.9513      0.00000

[...]

 k-point   133 :      -0.3333    0.3333    0.5000
  band No.  band energies     occupation
      1     -39.7955      2.00000
      2     -39.7955      2.00000
      3     -18.2495      2.00000
      4     -18.2495      2.00000
      5     -18.0305      2.00000
      6     -18.0305      2.00000
      7     -17.6667      2.00000
      8     -17.6667      2.00000
      9       7.4715      2.00000
     10       7.4715      2.00000
     11       7.6286      2.00000
     12       7.6286      2.00000
     13       8.8430      1.86065
     14       8.8430      1.86055
     15      10.8886      0.00000
     16      10.8886      0.00000
     17      13.2458      0.00000
     18      13.2458      0.00000
     19      16.8310      0.00000
     20      16.8311      0.00000
     21      18.3192      0.00000
     22      18.3192      0.00000
     23      18.9956      0.00000
     24      18.9957      0.00000
     25      24.0201      0.00000
     26      24.0201      0.00000
     27      24.6687      0.00000
     28      24.6687      0.00000
     29      27.1428      0.00000
     30      27.1428      0.00000
     31      31.4224      0.00000
     32      31.4224      0.00000
     33      31.8473      0.00000
     34      31.8473      0.00000
     35      34.8824      0.00000
     36      34.8824      0.00000
     37      37.7954      0.00000
     38      37.7954      0.00000
     39      39.2537      0.00000
     40      39.2537      0.00000
     41      39.2773      0.00000
     42      39.2773      0.00000
     43      39.4526      0.00000
     44      39.4526      0.00000
     45      41.2635      0.00000
     46      41.2635      0.00000
     47      43.0190      0.00000
     48      43.0190      0.00000

 soft charge-density along one line, spin component           1
         0         1         2         3         4         5         6         7         8         9
 total charge-density along one line

------------------------ aborting loop because EDIFF is reached ----------------------------------------

  FORCE on cell =-STRESS in cart. coord.  units (eV):
  Direction    XX          YY          ZZ          XY          YZ          ZX
  Alpha Z   112.92540   112.92540   112.92540
  Ewald    -702.20970  -702.20970  -685.35888    -0.00000     0.00000     0.00000
  Hartree   141.06272   141.06272   148.24790    -0.00000     0.00000     0.00000
  E(xc)    -101.61444  -101.61443  -101.59305    -0.00000     0.00000     0.00000
  Local     113.42040   113.42053    91.86076    -0.00012     0.00002     0.00004
  n-local   -18.70904   -41.81413   -33.24295   -13.09870     0.74682    -0.41292
  augment     3.93769     3.93768     4.08895     0.00001     0.00000    -0.00000
  Kinetic   449.36423   475.54926   462.67594    14.51188    -0.82724    -0.25299
  Fock        0.00000     0.00000     0.00000     0.00000     0.00000     0.00000
  Total      -0.28271    -0.28271    -0.39594    -0.00000    -0.00000    -0.00000
  in kB      -9.62422    -9.62422   -13.47896    -0.00000    -0.00000    -0.00000

 VOLUME and BASIS-vectors are now :
  energy-cutoff  :      298.87
  volume of cell :       47.06
      direct lattice vectors                 reciprocal lattice vectors
     3.236030000  0.000000000  0.000000000     0.309020621 -0.178413139  0.000000000
     1.618015000  2.802484187  0.000000000     0.000000000  0.356826277  0.000000000
     0.000000000  0.000000000  5.189530000    -0.000000000 -0.000000000  0.192695678

  length of vectors
     3.236030000  3.236030000  5.189530000     0.356826277  0.356826277  0.192695678

 FORCES acting on ions
    electron-ion (+dipol)            ewald-force                    non-local-force                 convergence-correction
   0.120E-06 0.691E-07 0.673E-07   0.119E-11 0.673E-12 -.281E-13   -.188E-16 -.204E-16 0.617E-18   0.734E-07 0.424E-07 0.255E-13
   0.184E-07 0.106E-07 -.108E-06   -.120E-11 -.676E-12 0.282E-13   0.341E-16 0.232E-16 -.985E-18   -.734E-07 -.424E-07 -.317E-14
   0.138E-06 0.797E-07 -.411E-07   -.733E-14 -.263E-14 0.209E-16   0.153E-16 0.281E-17 -.368E-18   -.446E-10 -.257E-10 0.224E-13

 POSITION                                       TOTAL-FORCE (eV/Angst)
      0.00000      0.00000      0.00000         0.000000     -0.000000      0.000000
      1.61802      0.93416      2.59477        -0.000000      0.000000     -0.000000
    total drift:                                0.000000      0.000000     -0.000000

  FREE ENERGIE OF THE ION-ELECTRON SYSTEM (eV)
  free  energy   TOTEN  =       -17.02000436 eV

  energy  without entropy=      -17.01677253  energy(sigma->0) =      -17.01838845

 writing wavefunctions