 vasp.6.4.3 19Mar24 (build Jun 26 2024 13:02:28) complex

 executed on             LinuxIFC date 2025.08.08  18:31:22

 INCAR:
   ENCUT = 227.47660000000002
   IBRION = -1
   ISMEAR = 0
   ISYM = 2
   LCHARG = True
   LWAVE = True
   SIGMA = 0.05
   SYSTEM = Te

 POTCAR:  PAW_PBE Te 08Apr2002
|           W    W    AA    RRRRR   N    N  II  N    N   GGGG   !!!           |
|           W    W   A  A   R    R  NN   N  II  NN   N  G    G  !!!           |
|           W    W  A    A  R    R  N N  N  II  N N  N  G       !!!           |
|           W WW W  AAAAAA  RRRRR   N  N N  II  N  N N  G  GGG   !            |
|           WW  WW  A    A  R   R   N   NN  II  N   NN  G    G                |
|           W    W  A    A  R    R  N    N  II  N    N   GGGG   !!!           |
|     For optimal performance we recommend to set                             |
|       NCORE = 2 up to number-of-cores-per-socket                            |
|     This setting can greatly improve the performance of VASP for DFT.       |
|     The default, NCORE=1 might be grossly inefficient on modern             |
|     multi-core architectures or massively parallel machines. Do your        |
|     Unfortunately you need to use the default for GW and RPA                |
|     calculations (for HF NCORE is supported but not extensively tested      |
|     yet).                                                                   |

 POTCAR:  PAW_PBE Te 08Apr2002
   VRHFIN =Te: s2p4

   TITEL  = PAW_PBE Te 08Apr2002
   POMASS =  127.600; ZVAL   =    6.000    mass and valenz
   ENMAX  =  174.982; ENMIN  =  131.236 eV

PAW_PBE Te 08Apr2002                    :

 POSCAR: Te3
  positions in direct lattice

 exchange-correlation table for PE
   RHO(1)=    0.500       N(1)  =     2000
   RHO(2)=  100.500       N(2)  =     4000

 ion  position               nearest neighbor table
   1  0.270  0.000  0.333-   2 2.90   3 2.90   2 3.50   2 3.50   3 3.50   3 3.50
   2  0.000  0.270  0.667-   1 2.90   3 2.90   1 3.50   1 3.50   3 3.50   3 3.50
   3  0.730  0.730  0.000-   2 2.90   1 2.90   1 3.50   2 3.50   1 3.50   2 3.50

  LATTYP: Found a hexagonal cell.
 ALAT       =     4.5078800000
 C/A-ratio  =     1.3228967941

  Lattice vectors:

 A1 = (   4.5078800000,   0.0000000000,   0.0000000000)
 A2 = (  -2.2539400000,   3.9039385972,   0.0000000000)
 A3 = (   0.0000000000,   0.0000000000,   5.9634600000)

Analysis of symmetry for initial positions (statically):
 Subroutine PRICEL returns:
 Original cell was already a primitive cell.

 Routine SETGRP: Setting up the symmetry group for a
 hexagonal supercell.

 Subroutine GETGRP returns: Found  6 space group operations
 (whereof  2 operations were pure point group operations)
 out of a pool of 24 trial point group operations.

The static configuration has the point symmetry C_2 .
 The point group associated with its full space group is D_3 .

Analysis of symmetry for dynamics (positions and initial velocities):
 Subroutine PRICEL returns:
 Original cell was already a primitive cell.

 Routine SETGRP: Setting up the symmetry group for a
 hexagonal supercell.

 Subroutine GETGRP returns: Found  6 space group operations
 (whereof  2 operations were pure point group operations)
 out of a pool of 24 trial point group operations.

The dynamic configuration has the point symmetry C_2 .
 The point group associated with its full space group is D_3 .

 Subroutine INISYM returns: Found  6 space group operations
 (whereof  2 operations are pure point group operations),
 and found     1 'primitive' translations

                                     Primitive cell

  volume of cell :     104.9479

  direct lattice vectors                    reciprocal lattice vectors
     4.507880000  0.000000000  0.000000000     0.221833767  0.128075785  0.000000000
    -2.253940000  3.903938597  0.000000000     0.000000000  0.256151570  0.000000000
     0.000000000  0.000000000  5.963460000    -0.000000000 -0.000000000  0.167687886

  length of vectors
     4.507880000  4.507880000  5.963460000     0.256151570  0.256151570  0.167687886

  position of ions in fractional coordinates (direct lattice)
     0.269660000  0.000000000  0.333333333
     0.000000000  0.269660000  0.666666667
     0.730340000  0.730340000  0.000000000

  ion indices of the primitive-cell ions
   primitive index   ion index
                 1           1
                 2           2
                 3           3

 KPOINTS: Automatic kpoint scheme

Automatic generation of k-mesh.
 Grid dimensions read from file:
 generate k-points for:    8    8    8

 Generating k-lattice:

  Cartesian coordinates                     Fractional coordinates (reciprocal lattice)
     0.027729221  0.016009473  0.000000000     0.125000000  0.000000000  0.000000000
     0.000000000  0.032018946  0.000000000     0.000000000  0.125000000  0.000000000
    -0.000000000 -0.000000000  0.020960986     0.000000000  0.000000000  0.125000000

  Length of vectors
     0.032018946  0.032018946  0.020960986

  Shift w.r.t. Gamma in fractional coordinates (k-lattice)
     0.000000000  0.000000000  0.000000000

 Subroutine IBZKPT returns following result:

 Found     65 irreducible k-points:

 Following reciprocal coordinates:
            Coordinates               Weight
  0.000000  0.000000  0.000000      1.000000
  0.125000 -0.000000  0.000000      6.000000
  0.250000 -0.000000  0.000000      6.000000
  0.375000  0.000000  0.000000      6.000000
  0.500000 -0.000000  0.000000      3.000000
  0.125000  0.125000  0.000000      6.000000
  0.250000  0.125000  0.000000     12.000000
  0.375000  0.125000  0.000000     12.000000
  0.250000  0.250000  0.000000      6.000000
  0.375000  0.250000  0.000000      6.000000
  0.000000 -0.000000  0.125000      2.000000
  0.125000 -0.000000  0.125000      6.000000
  0.000000  0.125000  0.125000      6.000000
  0.250000  0.000000  0.125000      6.000000
  0.000000  0.250000  0.125000      6.000000
  0.375000  0.000000  0.125000      6.000000
  0.000000  0.375000  0.125000      6.000000
  0.500000  0.000000  0.125000      6.000000
  0.125000  0.125000  0.125000     12.000000
  0.250000  0.125000  0.125000     12.000000
 -0.125000  0.375000  0.125000     12.000000
  0.375000  0.125000  0.125000     12.000000
 -0.125000  0.500000  0.125000     12.000000
  0.250000  0.250000  0.125000     12.000000
  0.375000  0.250000  0.125000     12.000000
  0.000000 -0.000000  0.250000      2.000000
  0.125000  0.000000  0.250000      6.000000
  0.000000  0.125000  0.250000      6.000000
  0.250000 -0.000000  0.250000      6.000000
  0.000000  0.250000  0.250000      6.000000
  0.375000  0.000000  0.250000      6.000000
  0.000000  0.375000  0.250000      6.000000
  0.500000  0.000000  0.250000      6.000000
  0.125000  0.125000  0.250000     12.000000
  0.250000  0.125000  0.250000     12.000000
 -0.125000  0.375000  0.250000     12.000000
  0.375000  0.125000  0.250000     12.000000
 -0.125000  0.500000  0.250000     12.000000
  0.250000  0.250000  0.250000     12.000000
  0.375000  0.250000  0.250000     12.000000
  0.000000  0.000000  0.375000      2.000000
  0.125000 -0.000000  0.375000      6.000000
  0.000000  0.125000  0.375000      6.000000
  0.250000  0.000000  0.375000      6.000000
  0.000000  0.250000  0.375000      6.000000
  0.375000  0.000000  0.375000      6.000000
  0.000000  0.375000  0.375000      6.000000
  0.500000 -0.000000  0.375000      6.000000
  0.125000  0.125000  0.375000     12.000000
  0.250000  0.125000  0.375000     12.000000
 -0.125000  0.375000  0.375000     12.000000
  0.375000  0.125000  0.375000     12.000000
 -0.125000  0.500000  0.375000     12.000000
  0.250000  0.250000  0.375000     12.000000
  0.375000  0.250000  0.375000     12.000000
  0.000000 -0.000000  0.500000      1.000000
  0.125000 -0.000000  0.500000      6.000000
  0.250000  0.000000  0.500000      6.000000
  0.375000  0.000000  0.500000      6.000000
  0.500000 -0.000000  0.500000      3.000000
  0.125000  0.125000  0.500000      6.000000
  0.250000  0.125000  0.500000     12.000000
  0.375000  0.125000  0.500000     12.000000
  0.250000  0.250000  0.500000      6.000000
  0.375000  0.250000  0.500000      6.000000

 Following cartesian coordinates:
            Coordinates               Weight
  0.000000  0.000000  0.000000      1.000000
  0.027729  0.016009  0.000000      6.000000
  0.055458  0.032019  0.000000      6.000000
  0.083188  0.048028  0.000000      6.000000
  0.110917  0.064038  0.000000      3.000000
  0.027729  0.048028  0.000000      6.000000
  0.055458  0.064038  0.000000     12.000000
  0.083188  0.080047  0.000000     12.000000
  0.055458  0.096057  0.000000      6.000000
  0.083188  0.112066  0.000000      6.000000
 -0.000000 -0.000000  0.020961      2.000000
  0.027729  0.016009  0.020961      6.000000
 -0.000000  0.032019  0.020961      6.000000
  0.055458  0.032019  0.020961      6.000000
 -0.000000  0.064038  0.020961      6.000000
  0.083188  0.048028  0.020961      6.000000
 -0.000000  0.096057  0.020961      6.000000
  0.110917  0.064038  0.020961      6.000000
  0.027729  0.048028  0.020961     12.000000
  0.055458  0.064038  0.020961     12.000000
 -0.027729  0.080047  0.020961     12.000000
  0.083188  0.080047  0.020961     12.000000
 -0.027729  0.112066  0.020961     12.000000
  0.055458  0.096057  0.020961     12.000000
  0.083188  0.112066  0.020961     12.000000
 -0.000000 -0.000000  0.041922      2.000000
  0.027729  0.016009  0.041922      6.000000
 -0.000000  0.032019  0.041922      6.000000
  0.055458  0.032019  0.041922      6.000000
 -0.000000  0.064038  0.041922      6.000000
  0.083188  0.048028  0.041922      6.000000
 -0.000000  0.096057  0.041922      6.000000
  0.110917  0.064038  0.041922      6.000000
  0.027729  0.048028  0.041922     12.000000
  0.055458  0.064038  0.041922     12.000000
 -0.027729  0.080047  0.041922     12.000000
  0.083188  0.080047  0.041922     12.000000
 -0.027729  0.112066  0.041922     12.000000
  0.055458  0.096057  0.041922     12.000000
  0.083188  0.112066  0.041922     12.000000
 -0.000000 -0.000000  0.062883      2.000000
  0.027729  0.016009  0.062883      6.000000
 -0.000000  0.032019  0.062883      6.000000
  0.055458  0.032019  0.062883      6.000000
 -0.000000  0.064038  0.062883      6.000000
  0.083188  0.048028  0.062883      6.000000
 -0.000000  0.096057  0.062883      6.000000
  0.110917  0.064038  0.062883      6.000000
  0.027729  0.048028  0.062883     12.000000
  0.055458  0.064038  0.062883     12.000000
 -0.027729  0.080047  0.062883     12.000000
  0.083188  0.080047  0.062883     12.000000
 -0.027729  0.112066  0.062883     12.000000
  0.055458  0.096057  0.062883     12.000000
  0.083188  0.112066  0.062883     12.000000
 -0.000000 -0.000000  0.083844      1.000000
  0.027729  0.016009  0.083844      6.000000
  0.055458  0.032019  0.083844      6.000000
  0.083188  0.048028  0.083844      6.000000
  0.110917  0.064038  0.083844      3.000000
  0.027729  0.048028  0.083844      6.000000
  0.055458  0.064038  0.083844     12.000000
  0.083188  0.080047  0.083844     12.000000
  0.055458  0.096057  0.083844      6.000000
[...]
   0.50000000  0.00000000  0.12500000       0.012
   0.12500000  0.12500000  0.12500000       0.023
   0.25000000  0.12500000  0.12500000       0.023
  -0.12500000  0.37500000  0.12500000       0.023
   0.37500000  0.12500000  0.12500000       0.023
  -0.12500000  0.50000000  0.12500000       0.023
   0.25000000  0.25000000  0.12500000       0.023
   0.37500000  0.25000000  0.12500000       0.023
   0.00000000 -0.00000000  0.25000000       0.004
   0.12500000  0.00000000  0.25000000       0.012
   0.00000000  0.12500000  0.25000000       0.012
   0.25000000 -0.00000000  0.25000000       0.012
   0.00000000  0.25000000  0.25000000       0.012
   0.37500000  0.00000000  0.25000000       0.012
   0.00000000  0.37500000  0.25000000       0.012
   0.50000000  0.00000000  0.25000000       0.012
   0.12500000  0.12500000  0.25000000       0.023
   0.25000000  0.12500000  0.25000000       0.023
  -0.12500000  0.37500000  0.25000000       0.023
   0.37500000  0.12500000  0.25000000       0.023
  -0.12500000  0.50000000  0.25000000       0.023
   0.25000000  0.25000000  0.25000000       0.023
   0.37500000  0.25000000  0.25000000       0.023
   0.00000000  0.00000000  0.37500000       0.004
   0.12500000 -0.00000000  0.37500000       0.012
   0.00000000  0.12500000  0.37500000       0.012
   0.25000000  0.00000000  0.37500000       0.012
   0.00000000  0.25000000  0.37500000       0.012
   0.37500000  0.00000000  0.37500000       0.012
   0.00000000  0.37500000  0.37500000       0.012
   0.50000000 -0.00000000  0.37500000       0.012
   0.12500000  0.12500000  0.37500000       0.023
   0.25000000  0.12500000  0.37500000       0.023
  -0.12500000  0.37500000  0.37500000       0.023
   0.37500000  0.12500000  0.37500000       0.023
  -0.12500000  0.50000000  0.37500000       0.023
   0.25000000  0.25000000  0.37500000       0.023
   0.37500000  0.25000000  0.37500000       0.023
   0.00000000 -0.00000000  0.50000000       0.002
   0.12500000 -0.00000000  0.50000000       0.012
   0.25000000  0.00000000  0.50000000       0.012
   0.37500000  0.00000000  0.50000000       0.012
   0.50000000 -0.00000000  0.50000000       0.006
   0.12500000  0.12500000  0.50000000       0.012
   0.25000000  0.12500000  0.50000000       0.023
   0.37500000  0.12500000  0.50000000       0.023
   0.25000000  0.25000000  0.50000000       0.012
   0.37500000  0.25000000  0.50000000       0.012

 position of ions in fractional coordinates (direct lattice)
   0.26966000  0.00000000  0.33333333
   0.00000000  0.26966000  0.66666667
   0.73034000  0.73034000  0.00000000

 position of ions in cartesian coordinates  (Angst):
   1.21559492  0.00000000  1.98782000
  -0.60779746  1.05273608  3.97564000
   1.64614254  2.85120252  0.00000000

 k-point     1 :   0.0000 0.0000 0.0000  plane waves:     855
 k-point     2 :   0.1250-0.0000 0.0000  plane waves:     825
 k-point     3 :   0.2500-0.0000 0.0000  plane waves:     824
 k-point     4 :   0.3750 0.0000 0.0000  plane waves:     822
 k-point     5 :   0.5000-0.0000 0.0000  plane waves:     812
 k-point     6 :   0.1250 0.1250 0.0000  plane waves:     821
 k-point     7 :   0.2500 0.1250 0.0000  plane waves:     824
 k-point     8 :   0.3750 0.1250 0.0000  plane waves:     814
 k-point     9 :   0.2500 0.2500 0.0000  plane waves:     818
 k-point    10 :   0.3750 0.2500 0.0000  plane waves:     812
 k-point    11 :   0.0000-0.0000 0.1250  plane waves:     819
 k-point    12 :   0.1250-0.0000 0.1250  plane waves:     827
 k-point    13 :   0.0000 0.1250 0.1250  plane waves:     827
 k-point    14 :   0.2500 0.0000 0.1250  plane waves:     819
 k-point    15 :   0.0000 0.2500 0.1250  plane waves:     819
 k-point    16 :   0.3750 0.0000 0.1250  plane waves:     814
 k-point    17 :   0.0000 0.3750 0.1250  plane waves:     814
 k-point    18 :   0.5000 0.0000 0.1250  plane waves:     808
 k-point    19 :   0.1250 0.1250 0.1250  plane waves:     824
 k-point    20 :   0.2500 0.1250 0.1250  plane waves:     824
 k-point    21 :  -0.1250 0.3750 0.1250  plane waves:     824
 k-point    22 :   0.3750 0.1250 0.1250  plane waves:     811
 k-point    23 :  -0.1250 0.5000 0.1250  plane waves:     811
 k-point    24 :   0.2500 0.2500 0.1250  plane waves:     822
 k-point    25 :   0.3750 0.2500 0.1250  plane waves:     811
 k-point    26 :   0.0000-0.0000 0.2500  plane waves:     819
 k-point    27 :   0.1250 0.0000 0.2500  plane waves:     822
 k-point    28 :   0.0000 0.1250 0.2500  plane waves:     822
 k-point    29 :   0.2500-0.0000 0.2500  plane waves:     815
 k-point    30 :   0.0000 0.2500 0.2500  plane waves:     815
 k-point    31 :   0.3750 0.0000 0.2500  plane waves:     813
 k-point    32 :   0.0000 0.3750 0.2500  plane waves:     813
 k-point    33 :   0.5000 0.0000 0.2500  plane waves:     818
 k-point    34 :   0.1250 0.1250 0.2500  plane waves:     820
 k-point    35 :   0.2500 0.1250 0.2500  plane waves:     824
 k-point    36 :  -0.1250 0.3750 0.2500  plane waves:     824
 k-point    37 :   0.3750 0.1250 0.2500  plane waves:     813
 k-point    38 :  -0.1250 0.5000 0.2500  plane waves:     813
 k-point    39 :   0.2500 0.2500 0.2500  plane waves:     816
 k-point    40 :   0.3750 0.2500 0.2500  plane waves:     821
 k-point    41 :   0.0000 0.0000 0.3750  plane waves:     830
 k-point    42 :   0.1250-0.0000 0.3750  plane waves:     832
 k-point    43 :   0.0000 0.1250 0.3750  plane waves:     832
 k-point    44 :   0.2500 0.0000 0.3750  plane waves:     822
 k-point    45 :   0.0000 0.2500 0.3750  plane waves:     822
 k-point    46 :   0.3750 0.0000 0.3750  plane waves:     810
 k-point    47 :   0.0000 0.3750 0.3750  plane waves:     810
 k-point    48 :   0.5000-0.0000 0.3750  plane waves:     806
 k-point    49 :   0.1250 0.1250 0.3750  plane waves:     821
 k-point    50 :   0.2500 0.1250 0.3750  plane waves:     817
 k-point    51 :  -0.1250 0.3750 0.3750  plane waves:     817
 k-point    52 :   0.3750 0.1250 0.3750  plane waves:     811
 k-point    53 :  -0.1250 0.5000 0.3750  plane waves:     811
 k-point    54 :   0.2500 0.2500 0.3750  plane waves:     811
 k-point    55 :   0.3750 0.2500 0.3750  plane waves:     820
 k-point    56 :   0.0000-0.0000 0.5000  plane waves:     830
 k-point    57 :   0.1250-0.0000 0.5000  plane waves:     834
 k-point    58 :   0.2500 0.0000 0.5000  plane waves:     824
 k-point    59 :   0.3750 0.0000 0.5000  plane waves:     810
 k-point    60 :   0.5000-0.0000 0.5000  plane waves:     816
 k-point    61 :   0.1250 0.1250 0.5000  plane waves:     822
 k-point    62 :   0.2500 0.1250 0.5000  plane waves:     814
 k-point    63 :   0.3750 0.1250 0.5000  plane waves:     810
 k-point    64 :   0.2500 0.2500 0.5000  plane waves:     820
 k-point    65 :   0.3750 0.2500 0.5000  plane waves:     820

 maximum and minimum number of plane-waves per node :       855      806

 maximum number of plane-waves:       855
 maximum index in each direction:
   IXMAX=    5   IYMAX=    5   IZMAX=    7
   IXMIN=   -6   IYMIN=   -6   IZMIN=   -7

 serial   3D FFT for wavefunctions
 parallel 3D FFT for charge:
    minimum data exchange during FFTs selected (reduces bandwidth)

 Broyden mixing: mesh for mixing (old mesh)
   NGX = 11   NGY = 11   NGZ = 15
  (NGX  = 36   NGY  = 36   NGZ  = 48)
  gives a total of   1815 points

 charge density for first step will be calculated from the start-wavefunctions

 Maximum index for augmentation-charges          283 (set IRDMAX)

 initial charge from wavefunction
 First call to EWALD:  gamma=   0.376
 Maximum number of real-space cells 3x 3x 2
 Maximum number of reciprocal cells 3x 3x 3

--------------------------------------- Ionic step        1  -------------------------------------------

--------------------------------------- Iteration      1(   1)  ---------------------------------------

 eigenvalue-minimisations  :  8592
 total energy-change (2. order) :-0.9424290E+01  (-0.3778574E-05)
 number of electron      18.0000022 magnetization
 augmentation part       -3.6087744 magnetization

 Broyden mixing:
  rms(total) = 0.50988E-03    rms(broyden)= 0.50986E-03
  rms(prec ) = 0.84744E-03
  weight for this iteration     100.00

 Free energy of the ion-electron system (eV)
  alpha Z        PSCENC =         2.22732130
  Ewald energy   TEWEN  =      -668.19150226
  -Hartree energ DENC   =       -45.14885266
  -exchange      EXHF   =         0.00000000
  -V(xc)+E(xc)   XCENC  =       -84.15307928
  PAW double counting   =      1509.08826081    -1393.71119631
  entropy T*S    EENTRO =        -0.00000000
  eigenvalues    EBANDS =         0.66017201
  atomic energy  EATOM  =       669.80458596
  Solvation  Ediel_sol  =         0.00000000
  free energy    TOTEN  =        -9.42429044 eV

  energy without entropy =       -9.42429044  energy(sigma->0) =       -9.42429044

--------------------------------------- Iteration      1(   2)  ---------------------------------------

 eigenvalue-minimisations  :  3888
 total energy-change (2. order) : 0.4986136E-06  (-0.1695839E-06)
 number of electron      18.0000022 magnetization
 augmentation part       -3.6087744 magnetization

 Free energy of the ion-electron system (eV)
  alpha Z        PSCENC =         2.22732130
  Ewald energy   TEWEN  =      -668.19150226
  -Hartree energ DENC   =       -45.15013866
  -exchange      EXHF   =         0.00000000
  -V(xc)+E(xc)   XCENC  =       -84.15301462
  PAW double counting   =      1509.12573135    -1393.74866171
  entropy T*S    EENTRO =        -0.00000000
  eigenvalues    EBANDS =         0.66138871
  atomic energy  EATOM  =       669.80458596
  Solvation  Ediel_sol  =         0.00000000
  free energy    TOTEN  =        -9.42428994 eV

  energy without entropy =       -9.42428994  energy(sigma->0) =       -9.42428994

 average (electrostatic) potential at core
  the test charge radii are     1.1897
  (the norm of the test charge is              1.0000)
       1 -89.3527       2 -89.3527       3 -89.3527

 E-fermi :   5.7909     XC(G=0):  -8.9395     alpha+bet :-10.2467

 val. band max:        5.5544826931   @ k =   0.3750   0.2500   0.5000
 cond. band min:       6.0257608870   @ k =   0.0000  -0.0000   0.5000
 fundamental gap:      0.4712781939
 Fermi energy:         5.7909330852

 k-point     1 :       0.0000    0.0000    0.0000
  band No.  band energies     occupation
      1      -7.8154      2.00000
      2      -4.6516      2.00000
      3      -4.6516      2.00000
      4       2.6053      2.00000
      5       2.8687      2.00000
      6       2.8687      2.00000
      7       3.9559      2.00000
      8       3.9559      2.00000
      9       4.7546      2.00000
     10       6.5531      0.00000
     11       6.5531      0.00000
     12       7.1196      0.00000
     13      10.6113      0.00000
     14      10.6113      0.00000
     15      11.4873      0.00000
     16      11.8755      0.00000
     17      11.8755      0.00000
     18      12.1336      0.00000
     19      12.1638      0.00000
     20      13.0598      0.00000
     21      13.0598      0.00000
     22      15.9423      0.00000
     23      15.9423      0.00000
     24      20.5049      0.00000
     25      20.5049      0.00000
     26      20.6037      0.00000
     27      21.1991      0.00000
     28      22.0860      0.00000
     29      22.0860      0.00000
     30      22.7896      0.00000
     31      22.8458      0.00000
     32      23.1481      0.00000
     33      23.1481      0.00000
     34      23.2711      0.00000
     35      23.2712      0.00000
     36      24.9024      0.00000
     37      25.4701      0.00000
     38      25.4702      0.00000
     39      25.9054      0.00000
     40      25.9054      0.00000
     41      27.1377      0.00000
     42      27.6902      0.00000
     43      27.6903      0.00000
     44      28.0779      0.00000
     45      28.5375      0.00000
     46      28.5511      0.00000
     47      28.7077      0.00000
     48      28.7077      0.00000

[...]

 k-point    65 :       0.3750    0.2500    0.5000
  band No.  band energies     occupation
      1      -6.1760      2.00000
      2      -6.0356      2.00000
      3      -4.4407      2.00000
      4       0.4326      2.00000
      5       0.9198      2.00000
      6       0.9541      2.00000
      7       4.5627      2.00000
      8       5.0063      2.00000
      9       5.5545      2.00000
     10       6.1068      0.00000
     11       6.8982      0.00000
     12       7.1202      0.00000
     13      11.0819      0.00000
     14      11.5817      0.00000
     15      12.5914      0.00000
     16      12.8842      0.00000
     17      13.0998      0.00000
     18      13.6745      0.00000
     19      15.7612      0.00000
     20      16.2822      0.00000
     21      17.0241      0.00000
     22      17.3947      0.00000
     23      17.7570      0.00000
     24      18.0592      0.00000
     25      18.9549      0.00000
     26      19.2103      0.00000
     27      19.8142      0.00000
     28      19.9468      0.00000
     29      20.6607      0.00000
     30      21.3011      0.00000
     31      21.4432      0.00000
     32      21.7976      0.00000
     33      22.1153      0.00000
     34      22.5503      0.00000
     35      23.2248      0.00000
     36      23.6600      0.00000
     37      23.8638      0.00000
     38      24.3283      0.00000
     39      24.7755      0.00000
     40      24.9245      0.00000
     41      25.5443      0.00000
     42      25.5743      0.00000
     43      26.1623      0.00000
     44      26.3720      0.00000
     45      26.7772      0.00000
     46      27.7861      0.00000
     47      28.5513      0.00000
     48      28.5774      0.00000

 soft charge-density along one line, spin component           1
         0         1         2         3         4         5         6         7         8         9
 total charge-density along one line

------------------------ aborting loop because EDIFF is reached ----------------------------------------

  FORCE on cell =-STRESS in cart. coord.  units (eV):
  Direction    XX          YY          ZZ          XY          YZ          ZX
  Alpha Z     2.22732     2.22732     2.22732
  Ewald    -235.18533  -235.18533  -197.82143    -0.00000     0.00000    -0.00000
  Hartree    11.78021    11.78021    21.59199    -0.00000    -0.00000    -0.00000
  E(xc)     -70.21808   -70.21808   -69.75528    -0.00001     0.00000     0.00000
  Local    -114.59896  -114.59930  -152.95994    -0.00029     0.00000     0.00000
  n-local   332.24920   331.86326   327.91246    -0.55802    -0.55530    -1.07848
  augment   -81.03965   -81.03935   -78.89615     0.00026     0.00000    -0.00000
  Kinetic   155.09928   154.76955   147.65192    -4.97548    -0.40293     1.25888
  Fock        0.00000     0.00000     0.00000     0.00000     0.00000     0.00000
  Total      -0.04387    -0.04387    -0.04911     0.00000     0.00000    -0.00000
  in kB      -0.66968    -0.66968    -0.74976     0.00000     0.00000    -0.00000

 VOLUME and BASIS-vectors are now :
  energy-cutoff  :      227.48
  volume of cell :      104.95
      direct lattice vectors                 reciprocal lattice vectors
     4.507880000  0.000000000  0.000000000     0.221833767  0.128075785  0.000000000
    -2.253940000  3.903938597  0.000000000     0.000000000  0.256151570  0.000000000
     0.000000000  0.000000000  5.963460000    -0.000000000 -0.000000000  0.167687886

  length of vectors
     4.507880000  4.507880000  5.963460000     0.256151570  0.256151570  0.167687886

 FORCES acting on ions
    electron-ion (+dipol)            ewald-force                    non-local-force                 convergence-correction
   -.118E+02 0.111E-05 -.116E-05   0.168E+02 -.102E-11 -.508E-11   -.504E+01 -.149E-16 -.287E-15   0.282E-02 0.353E-07 0.212E-08
   0.588E+01 -.102E+02 0.142E-05   -.840E+01 0.146E+02 0.508E-11   0.252E+01 -.436E+01 -.310E-15   -.141E-02 0.244E-02 -.211E-08
   0.588E+01 0.102E+02 -.210E-06   -.840E+01 -.146E+02 0.225E-17   0.252E+01 0.436E+01 0.674E-15   -.141E-02 -.244E-02 -.106E-10
   -.208E-05 -.375E-05 0.555E-07   -.178E-14 0.355E-14 0.225E-17   0.444E-15 0.000E+00 0.771E-16   -.234E-07 -.405E-07 -.151E-12

 POSITION                                       TOTAL-FORCE (eV/Angst)
      1.21559      0.00000      1.98782        -0.000010      0.000000     -0.000000
     -0.60780      1.05274      3.97564         0.000005     -0.000009     -0.000000
      1.64614      2.85120      0.00000         0.000005      0.000009      0.000000
    total drift:                               -0.000002     -0.000004      0.000000

  FREE ENERGIE OF THE ION-ELECTRON SYSTEM (eV)
  free  energy   TOTEN  =        -9.42428994 eV

  energy  without entropy=       -9.42428994  energy(sigma->0) =       -9.42428994

 writing wavefunctions