 vasp.6.4.3 19Mar24 (build Jun 26 2024 13:02:28) complex

 executed on             LinuxIFC date 2025.08.08  18:57:28

 INCAR:
   ENCUT = 356.99300000000005
   IBRION = -1
   ISMEAR = 0
   ISYM = 2
   LCHARG = True
   LWAVE = True
   SIGMA = 0.05
   SYSTEM = Ti

 POTCAR:  PAW_PBE Ti_sv 26Sep2005
|           W    W    AA    RRRRR   N    N  II  N    N   GGGG   !!!           |
|           W    W   A  A   R    R  NN   N  II  NN   N  G    G  !!!           |
|           W    W  A    A  R    R  N N  N  II  N N  N  G       !!!           |
|           W WW W  AAAAAA  RRRRR   N  N N  II  N  N N  G  GGG   !            |
|           WW  WW  A    A  R   R   N   NN  II  N   NN  G    G                |
|           W    W  A    A  R    R  N    N  II  N    N   GGGG   !!!           |
|     For optimal performance we recommend to set                             |
|       NCORE = 2 up to number-of-cores-per-socket                            |
|     This setting can greatly improve the performance of VASP for DFT.       |
|     The default, NCORE=1 might be grossly inefficient on modern             |
|     multi-core architectures or massively parallel machines. Do your        |
|     Unfortunately you need to use the default for GW and RPA                |
|     calculations (for HF NCORE is supported but not extensively tested      |
|     yet).                                                                   |

 POTCAR:  PAW_PBE Ti_sv 26Sep2005
   VRHFIN =Ti: 3p4s3d

   TITEL  = PAW_PBE Ti_sv 26Sep2005
   POMASS =   47.880; ZVAL   =   12.000    mass and valenz
   ENMAX  =  274.610; ENMIN  =  205.957 eV

PAW_PBE Ti_sv 26Sep2005                 :

 POSCAR: Ti2
  positions in direct lattice

 exchange-correlation table for PE
   RHO(1)=    0.500       N(1)  =     2000
   RHO(2)=  100.500       N(2)  =     4000

 ion  position               nearest neighbor table
   1  0.000  0.000  0.000-   2 2.88   2 2.88   2 2.88   2 2.88   2 2.88   2 2.88
   2  0.333  0.333  0.500-   1 2.88   1 2.88   1 2.88   1 2.88   1 2.88   1 2.88

  LATTYP: Found a hexagonal cell.
 ALAT       =     2.9366400000
 C/A-ratio  =     1.5840995151

  Lattice vectors:

 A1 = (  -1.4683200000,  -2.5432048418,   0.0000000000)
 A2 = (   2.9366400000,   0.0000000000,   0.0000000000)
 A3 = (   0.0000000000,   0.0000000000,   4.6519300000)

Analysis of symmetry for initial positions (statically):
 Subroutine PRICEL returns:
 Original cell was already a primitive cell.

 Routine SETGRP: Setting up the symmetry group for a
 hexagonal supercell.

 Subroutine GETGRP returns: Found 24 space group operations
 (whereof 12 operations were pure point group operations)
 out of a pool of 24 trial point group operations.

The static configuration has the point symmetry D_3h.
 The point group associated with its full space group is D_6h.

Analysis of symmetry for dynamics (positions and initial velocities):
 Subroutine PRICEL returns:
 Original cell was already a primitive cell.

 Routine SETGRP: Setting up the symmetry group for a
 hexagonal supercell.

 Subroutine GETGRP returns: Found 24 space group operations
 (whereof 12 operations were pure point group operations)
 out of a pool of 24 trial point group operations.

The dynamic configuration has the point symmetry D_3h.
 The point group associated with its full space group is D_6h.

 Subroutine INISYM returns: Found 24 space group operations
 (whereof 12 operations are pure point group operations),
 and found     1 'primitive' translations

                                     Primitive cell

  volume of cell :      34.7428

  direct lattice vectors                    reciprocal lattice vectors
     2.936640000  0.000000000  0.000000000     0.340525226 -0.196602331  0.000000000
     1.468320000  2.543204842  0.000000000     0.000000000  0.393204662  0.000000000
     0.000000000  0.000000000  4.651930000    -0.000000000 -0.000000000  0.214964542

  length of vectors
     2.936640000  2.936640000  4.651930000     0.393204662  0.393204662  0.214964542

  position of ions in fractional coordinates (direct lattice)
     0.000000000  0.000000000  0.000000000
     0.333333333  0.333333333  0.500000000

  ion indices of the primitive-cell ions
   primitive index   ion index
                 1           1
                 2           2

 KPOINTS: Automatic kpoint scheme

Automatic generation of k-mesh.
 Grid dimensions read from file:
 generate k-points for:    8    8    8

 Generating k-lattice:

  Cartesian coordinates                     Fractional coordinates (reciprocal lattice)
     0.042565653 -0.024575291  0.000000000     0.125000000 -0.000000000  0.000000000
     0.000000000  0.049150583  0.000000000     0.000000000  0.125000000  0.000000000
    -0.000000000 -0.000000000  0.026870568     0.000000000  0.000000000  0.125000000

  Length of vectors
     0.049150583  0.049150583  0.026870568

  Shift w.r.t. Gamma in fractional coordinates (k-lattice)
     0.000000000  0.000000000  0.000000000

 Subroutine IBZKPT returns following result:

 Found     50 irreducible k-points:

 Following reciprocal coordinates:
            Coordinates               Weight
  0.000000  0.000000  0.000000      1.000000
  0.125000  0.000000  0.000000      6.000000
  0.250000  0.000000  0.000000      6.000000
  0.375000  0.000000  0.000000      6.000000
  0.500000  0.000000  0.000000      3.000000
  0.250000  0.125000  0.000000      6.000000
  0.375000  0.125000  0.000000     12.000000
  0.500000  0.125000  0.000000     12.000000
  0.500000  0.250000  0.000000      6.000000
 -0.375000  0.250000  0.000000      6.000000
  0.000000  0.000000  0.125000      2.000000
  0.125000  0.000000  0.125000     12.000000
  0.250000  0.000000  0.125000     12.000000
  0.375000  0.000000  0.125000     12.000000
  0.500000  0.000000  0.125000      6.000000
  0.250000  0.125000  0.125000     12.000000
  0.375000  0.125000  0.125000     24.000000
  0.500000  0.125000  0.125000     24.000000
  0.500000  0.250000  0.125000     12.000000
 -0.375000  0.250000  0.125000     12.000000
  0.000000  0.000000  0.250000      2.000000
  0.125000 -0.000000  0.250000     12.000000
  0.250000  0.000000  0.250000     12.000000
  0.375000  0.000000  0.250000     12.000000
  0.500000  0.000000  0.250000      6.000000
  0.250000  0.125000  0.250000     12.000000
  0.375000  0.125000  0.250000     24.000000
  0.500000  0.125000  0.250000     24.000000
  0.500000  0.250000  0.250000     12.000000
 -0.375000  0.250000  0.250000     12.000000
 -0.000000  0.000000  0.375000      2.000000
  0.125000  0.000000  0.375000     12.000000
  0.250000  0.000000  0.375000     12.000000
  0.375000  0.000000  0.375000     12.000000
  0.500000  0.000000  0.375000      6.000000
  0.250000  0.125000  0.375000     12.000000
  0.375000  0.125000  0.375000     24.000000
  0.500000  0.125000  0.375000     24.000000
  0.500000  0.250000  0.375000     12.000000
 -0.375000  0.250000  0.375000     12.000000
  0.000000  0.000000  0.500000      1.000000
  0.125000  0.000000  0.500000      6.000000
  0.250000 -0.000000  0.500000      6.000000
  0.375000  0.000000  0.500000      6.000000
  0.500000  0.000000  0.500000      3.000000
  0.250000  0.125000  0.500000      6.000000
  0.375000  0.125000  0.500000     12.000000
  0.500000  0.125000  0.500000     12.000000
  0.500000  0.250000  0.500000      6.000000
 -0.375000  0.250000  0.500000      6.000000

 Following cartesian coordinates:
            Coordinates               Weight
  0.000000  0.000000  0.000000      1.000000
  0.042566 -0.024575  0.000000      6.000000
  0.085131 -0.049151  0.000000      6.000000
  0.127697 -0.073726  0.000000      6.000000
  0.170263 -0.098301  0.000000      3.000000
  0.085131 -0.000000  0.000000      6.000000
  0.127697 -0.024575  0.000000     12.000000
  0.170263 -0.049151  0.000000     12.000000
  0.170263 -0.000000  0.000000      6.000000
 -0.127697  0.172027  0.000000      6.000000
 -0.000000 -0.000000  0.026871      2.000000
  0.042566 -0.024575  0.026871     12.000000
  0.085131 -0.049151  0.026871     12.000000
  0.127697 -0.073726  0.026871     12.000000
  0.170263 -0.098301  0.026871      6.000000
  0.085131 -0.000000  0.026871     12.000000
  0.127697 -0.024575  0.026871     24.000000
  0.170263 -0.049151  0.026871     24.000000
  0.170263 -0.000000  0.026871     12.000000
 -0.127697  0.172027  0.026871     12.000000
 -0.000000 -0.000000  0.053741      2.000000
  0.042566 -0.024575  0.053741     12.000000
  0.085131 -0.049151  0.053741     12.000000
  0.127697 -0.073726  0.053741     12.000000
  0.170263 -0.098301  0.053741      6.000000
  0.085131 -0.000000  0.053741     12.000000
  0.127697 -0.024575  0.053741     24.000000
  0.170263 -0.049151  0.053741     24.000000
  0.170263 -0.000000  0.053741     12.000000
 -0.127697  0.172027  0.053741     12.000000
 -0.000000 -0.000000  0.080612      2.000000
  0.042566 -0.024575  0.080612     12.000000
  0.085131 -0.049151  0.080612     12.000000
  0.127697 -0.073726  0.080612     12.000000
  0.170263 -0.098301  0.080612      6.000000
  0.085131 -0.000000  0.080612     12.000000
  0.127697 -0.024575  0.080612     24.000000
  0.170263 -0.049151  0.080612     24.000000
  0.170263 -0.000000  0.080612     12.000000
 -0.127697  0.172027  0.080612     12.000000
 -0.000000 -0.000000  0.107482      1.000000
  0.042566 -0.024575  0.107482      6.000000
  0.085131 -0.049151  0.107482      6.000000
  0.127697 -0.073726  0.107482      6.000000
  0.170263 -0.098301  0.107482      3.000000
  0.085131 -0.000000  0.107482      6.000000
  0.127697 -0.024575  0.107482     12.000000
  0.170263 -0.049151  0.107482     12.000000
  0.170263 -0.000000  0.107482      6.000000
 -0.127697  0.172027  0.107482      6.000000

 Subroutine IBZKPT_HF returns following result:

 Found    512 k-points in 1st BZ
 the following    512 k-points will be used (e.g. in the exchange kernel)
 Following reciprocal coordinates:   # in IRBZ
  0.000000  0.000000  0.000000    0.00195312   1 t-inv F
  0.125000  0.000000  0.000000    0.00195312   2 t-inv F
  0.250000  0.000000  0.000000    0.00195312   3 t-inv F
  0.375000  0.000000  0.000000    0.00195312   4 t-inv F
  0.500000  0.000000  0.000000    0.00195312   5 t-inv F
  0.250000  0.125000  0.000000    0.00195312   6 t-inv F
  0.375000  0.125000  0.000000    0.00195312   7 t-inv F
  0.500000  0.125000  0.000000    0.00195312   8 t-inv F
  0.500000  0.250000  0.000000    0.00195312   9 t-inv F
 -0.375000  0.250000  0.000000    0.00195312  10 t-inv F
  0.000000  0.000000  0.125000    0.00195312  11 t-inv F
  0.125000  0.000000  0.125000    0.00195312  12 t-inv F
  0.250000  0.000000  0.125000    0.00195312  13 t-inv F
  0.375000  0.000000  0.125000    0.00195312  14 t-inv F
  0.500000  0.000000  0.125000    0.00195312  15 t-inv F
  0.250000  0.125000  0.125000    0.00195312  16 t-inv F
  0.375000  0.125000  0.125000    0.00195312  17 t-inv F
  0.500000  0.125000  0.125000    0.00195312  18 t-inv F
  0.500000  0.250000  0.125000    0.00195312  19 t-inv F
 -0.375000  0.250000  0.125000    0.00195312  20 t-inv F
  0.000000  0.000000  0.250000    0.00195312  21 t-inv F
  0.125000 -0.000000  0.250000    0.00195312  22 t-inv F
[...]
  -0.12769696  0.17202704  0.05374114       0.023
  -0.00000000 -0.00000000  0.08061170       0.004
   0.04256565 -0.02457529  0.08061170       0.023
   0.08513131 -0.04915058  0.08061170       0.023
   0.12769696 -0.07372587  0.08061170       0.023
   0.17026261 -0.09830117  0.08061170       0.012
   0.08513131 -0.00000000  0.08061170       0.023
   0.12769696 -0.02457529  0.08061170       0.047
   0.17026261 -0.04915058  0.08061170       0.047
   0.17026261 -0.00000000  0.08061170       0.023
  -0.12769696  0.17202704  0.08061170       0.023
  -0.00000000 -0.00000000  0.10748227       0.002
   0.04256565 -0.02457529  0.10748227       0.012
   0.08513131 -0.04915058  0.10748227       0.012
   0.12769696 -0.07372587  0.10748227       0.012
   0.17026261 -0.09830117  0.10748227       0.006
   0.08513131 -0.00000000  0.10748227       0.012
   0.12769696 -0.02457529  0.10748227       0.023
   0.17026261 -0.04915058  0.10748227       0.023
   0.17026261 -0.00000000  0.10748227       0.012
  -0.12769696  0.17202704  0.10748227       0.012

 k-points in reciprocal lattice and weights: Automatic kpoint scheme
   0.00000000  0.00000000  0.00000000       0.002
   0.12500000  0.00000000  0.00000000       0.012
   0.25000000  0.00000000  0.00000000       0.012
   0.37500000  0.00000000  0.00000000       0.012
   0.50000000  0.00000000  0.00000000       0.006
   0.25000000  0.12500000  0.00000000       0.012
   0.37500000  0.12500000  0.00000000       0.023
   0.50000000  0.12500000  0.00000000       0.023
   0.50000000  0.25000000  0.00000000       0.012
  -0.37500000  0.25000000  0.00000000       0.012
   0.00000000  0.00000000  0.12500000       0.004
   0.12500000  0.00000000  0.12500000       0.023
   0.25000000  0.00000000  0.12500000       0.023
   0.37500000  0.00000000  0.12500000       0.023
   0.50000000  0.00000000  0.12500000       0.012
   0.25000000  0.12500000  0.12500000       0.023
   0.37500000  0.12500000  0.12500000       0.047
   0.50000000  0.12500000  0.12500000       0.047
   0.50000000  0.25000000  0.12500000       0.023
  -0.37500000  0.25000000  0.12500000       0.023
   0.00000000  0.00000000  0.25000000       0.004
   0.12500000 -0.00000000  0.25000000       0.023
   0.25000000  0.00000000  0.25000000       0.023
   0.37500000  0.00000000  0.25000000       0.023
   0.50000000  0.00000000  0.25000000       0.012
   0.25000000  0.12500000  0.25000000       0.023
   0.37500000  0.12500000  0.25000000       0.047
   0.50000000  0.12500000  0.25000000       0.047
   0.50000000  0.25000000  0.25000000       0.023
  -0.37500000  0.25000000  0.25000000       0.023
  -0.00000000  0.00000000  0.37500000       0.004
   0.12500000  0.00000000  0.37500000       0.023
   0.25000000  0.00000000  0.37500000       0.023
   0.37500000  0.00000000  0.37500000       0.023
   0.50000000  0.00000000  0.37500000       0.012
   0.25000000  0.12500000  0.37500000       0.023
   0.37500000  0.12500000  0.37500000       0.047
   0.50000000  0.12500000  0.37500000       0.047
   0.50000000  0.25000000  0.37500000       0.023
  -0.37500000  0.25000000  0.37500000       0.023
   0.00000000  0.00000000  0.50000000       0.002
   0.12500000  0.00000000  0.50000000       0.012
   0.25000000 -0.00000000  0.50000000       0.012
   0.37500000  0.00000000  0.50000000       0.012
   0.50000000  0.00000000  0.50000000       0.006
   0.25000000  0.12500000  0.50000000       0.012
   0.37500000  0.12500000  0.50000000       0.023
   0.50000000  0.12500000  0.50000000       0.023
   0.50000000  0.25000000  0.50000000       0.012
  -0.37500000  0.25000000  0.50000000       0.012

 position of ions in fractional coordinates (direct lattice)
   0.00000000  0.00000000  0.00000000
   0.33333333  0.33333333  0.50000000

 position of ions in cartesian coordinates  (Angst):
   0.00000000  0.00000000  0.00000000
   1.46832000  0.84773495  2.32596500

 k-point     1 :   0.0000 0.0000 0.0000  plane waves:     537
 k-point     2 :   0.1250 0.0000 0.0000  plane waves:     544
 k-point     3 :   0.2500 0.0000 0.0000  plane waves:     542
 k-point     4 :   0.3750 0.0000 0.0000  plane waves:     534
 k-point     5 :   0.5000 0.0000 0.0000  plane waves:     520
 k-point     6 :   0.2500 0.1250 0.0000  plane waves:     535
 k-point     7 :   0.3750 0.1250 0.0000  plane waves:     526
 k-point     8 :   0.5000 0.1250 0.0000  plane waves:     524
 k-point     9 :   0.5000 0.2500 0.0000  plane waves:     521
 k-point    10 :  -0.3750 0.2500 0.0000  plane waves:     530
 k-point    11 :   0.0000 0.0000 0.1250  plane waves:     543
 k-point    12 :   0.1250 0.0000 0.1250  plane waves:     545
 k-point    13 :   0.2500 0.0000 0.1250  plane waves:     538
 k-point    14 :   0.3750 0.0000 0.1250  plane waves:     529
 k-point    15 :   0.5000 0.0000 0.1250  plane waves:     528
 k-point    16 :   0.2500 0.1250 0.1250  plane waves:     544
 k-point    17 :   0.3750 0.1250 0.1250  plane waves:     527
 k-point    18 :   0.5000 0.1250 0.1250  plane waves:     524
 k-point    19 :   0.5000 0.2500 0.1250  plane waves:     523
 k-point    20 :  -0.3750 0.2500 0.1250  plane waves:     529
 k-point    21 :   0.0000 0.0000 0.2500  plane waves:     548
 k-point    22 :   0.1250-0.0000 0.2500  plane waves:     538
 k-point    23 :   0.2500 0.0000 0.2500  plane waves:     543
 k-point    24 :   0.3750 0.0000 0.2500  plane waves:     530
 k-point    25 :   0.5000 0.0000 0.2500  plane waves:     526
 k-point    26 :   0.2500 0.1250 0.2500  plane waves:     538
 k-point    27 :   0.3750 0.1250 0.2500  plane waves:     533
 k-point    28 :   0.5000 0.1250 0.2500  plane waves:     528
 k-point    29 :   0.5000 0.2500 0.2500  plane waves:     520
 k-point    30 :  -0.3750 0.2500 0.2500  plane waves:     527
 k-point    31 :  -0.0000 0.0000 0.3750  plane waves:     530
 k-point    32 :   0.1250 0.0000 0.3750  plane waves:     534
 k-point    33 :   0.2500 0.0000 0.3750  plane waves:     537
 k-point    34 :   0.3750 0.0000 0.3750  plane waves:     533
 k-point    35 :   0.5000 0.0000 0.3750  plane waves:     520
 k-point    36 :   0.2500 0.1250 0.3750  plane waves:     540
 k-point    37 :   0.3750 0.1250 0.3750  plane waves:     539
 k-point    38 :   0.5000 0.1250 0.3750  plane waves:     529
 k-point    39 :   0.5000 0.2500 0.3750  plane waves:     527
 k-point    40 :  -0.3750 0.2500 0.3750  plane waves:     530
 k-point    41 :   0.0000 0.0000 0.5000  plane waves:     530
 k-point    42 :   0.1250 0.0000 0.5000  plane waves:     526
 k-point    43 :   0.2500-0.0000 0.5000  plane waves:     532
 k-point    44 :   0.3750 0.0000 0.5000  plane waves:     536
 k-point    45 :   0.5000 0.0000 0.5000  plane waves:     532
 k-point    46 :   0.2500 0.1250 0.5000  plane waves:     548
 k-point    47 :   0.3750 0.1250 0.5000  plane waves:     536
 k-point    48 :   0.5000 0.1250 0.5000  plane waves:     532
 k-point    49 :   0.5000 0.2500 0.5000  plane waves:     532
 k-point    50 :  -0.3750 0.2500 0.5000  plane waves:     534

 maximum and minimum number of plane-waves per node :       548      520

 maximum number of plane-waves:       548
 maximum index in each direction:
   IXMAX=    4   IYMAX=    4   IZMAX=    7
   IXMIN=   -5   IYMIN=   -4   IZMIN=   -7

 serial   3D FFT for wavefunctions
 parallel 3D FFT for charge:
    minimum data exchange during FFTs selected (reduces bandwidth)

 Broyden mixing: mesh for mixing (old mesh)
   NGX =  9   NGY =  9   NGZ = 15
  (NGX  = 28   NGY  = 28   NGZ  = 48)
  gives a total of   1215 points

 charge density for first step will be calculated from the start-wavefunctions

 Maximum index for augmentation-charges          331 (set IRDMAX)

 initial charge from wavefunction
 First call to EWALD:  gamma=   0.543
 Maximum number of real-space cells 3x 3x 2
 Maximum number of reciprocal cells 3x 3x 4

--------------------------------------- Ionic step        1  -------------------------------------------

--------------------------------------- Iteration      1(   1)  ---------------------------------------

 eigenvalue-minimisations  :  3408
 total energy-change (2. order) :-0.1564849E+02  (-0.4923615E-05)
 number of electron      23.9999956 magnetization
 augmentation part        7.1633145 magnetization

 Broyden mixing:
  rms(total) = 0.11771E-02    rms(broyden)= 0.11765E-02
  rms(prec ) = 0.20885E-02
  weight for this iteration     100.00

 Free energy of the ion-electron system (eV)
  alpha Z        PSCENC =       114.46506020
  Ewald energy   TEWEN  =     -2312.07692128
  -Hartree energ DENC   =      -731.60104035
  -exchange      EXHF   =         0.00000000
  -V(xc)+E(xc)   XCENC  =       121.79050241
  PAW double counting   =      2917.90643805    -2866.02968054
  entropy T*S    EENTRO =        -0.00127102
  eigenvalues    EBANDS =      -436.22688248
  atomic energy  EATOM  =      3176.12530694
  Solvation  Ediel_sol  =         0.00000000
  free energy    TOTEN  =       -15.64848806 eV

  energy without entropy =      -15.64721705  energy(sigma->0) =      -15.64785255

--------------------------------------- Iteration      1(   2)  ---------------------------------------

 eigenvalue-minimisations  :  2400
 total energy-change (2. order) : 0.2730661E-05  (-0.1304712E-05)
 number of electron      23.9999956 magnetization
 augmentation part        7.1633145 magnetization

 Free energy of the ion-electron system (eV)
  alpha Z        PSCENC =       114.46506020
  Ewald energy   TEWEN  =     -2312.07692128
  -Hartree energ DENC   =      -731.54790210
  -exchange      EXHF   =         0.00000000
  -V(xc)+E(xc)   XCENC  =       121.78786137
  PAW double counting   =      2917.98050846    -2866.10503559
  entropy T*S    EENTRO =        -0.00127206
  eigenvalues    EBANDS =      -436.27609128
  atomic energy  EATOM  =      3176.12530694
  Solvation  Ediel_sol  =         0.00000000
  free energy    TOTEN  =       -15.64848533 eV

  energy without entropy =      -15.64721327  energy(sigma->0) =      -15.64784930

 average (electrostatic) potential at core
  the test charge radii are     1.0397
  (the norm of the test charge is              1.0000)
       1 -72.4530       2 -72.4530

 E-fermi :   8.3586     XC(G=0): -11.4984     alpha+bet :-16.1710

 val. band max:        8.3260186555   @ k =  -0.3750   0.2500   0.3750
 cond. band min:       8.3747724160   @ k =  -0.3750   0.2500   0.2500
 fundamental gap:      0.0487537605
 Fermi energy:         8.3585739015

 k-point     1 :       0.0000    0.0000    0.0000
  band No.  band energies     occupation
      1     -48.4995      2.00000
      2     -48.3618      2.00000
      3     -25.1122      2.00000
      4     -24.4623      2.00000
      5     -24.4623      2.00000
      6     -24.4045      2.00000
      7     -24.3615      2.00000
      8     -24.3615      2.00000
      9       2.1935      2.00000
     10       5.6726      2.00000
     11       9.1074      0.00000
     12       9.1195      0.00000
     13       9.1195      0.00000
     14       9.2272      0.00000
     15       9.6178      0.00000
     16       9.6178      0.00000
     17       9.9625      0.00000
     18       9.9625      0.00000
     19      11.4897      0.00000
     20      11.4897      0.00000
     21      16.6573      0.00000
     22      22.9223      0.00000
     23      25.5891      0.00000
     24      25.7184      0.00000
     25      27.5017      0.00000
     26      27.5017      0.00000
     27      28.6991      0.00000
     28      28.6991      0.00000
     29      29.5930      0.00000
     30      29.5930      0.00000
     31      30.5686      0.00000
     32      33.4501      0.00000
     33      33.6450      0.00000
     34      33.6450      0.00000
     35      36.2203      0.00000
     36      36.7395      0.00000
     37      36.7396      0.00000
     38      38.3740      0.00000
     39      38.3740      0.00000
     40      40.4238      0.00000
     41      46.0597      0.00000
     42      49.6741      0.00000
     43      49.6742      0.00000
     44      49.8071      0.00000
     45      49.8071      0.00000
     46      49.9130      0.00000
     47      49.9131      0.00000
     48      52.9223      0.00000

[...]

 k-point    50 :      -0.3750    0.2500    0.5000
  band No.  band energies     occupation
      1     -48.3510      2.00000
      2     -48.3510      2.00000
      3     -24.9360      2.00000
      4     -24.9360      2.00000
      5     -24.7040      2.00000
      6     -24.7040      2.00000
      7     -24.4968      2.00000
      8     -24.4968      2.00000
      9       6.6889      2.00000
     10       6.6889      2.00000
     11       7.6755      2.00000
     12       7.6755      2.00000
     13       8.1119      2.00000
     14       8.1119      2.00000
     15      10.0522      0.00000
     16      10.0522      0.00000
     17      11.5421      0.00000
     18      11.5422      0.00000
     19      14.3973      0.00000
     20      14.3973      0.00000
     21      16.9117      0.00000
     22      16.9117      0.00000
     23      18.4792      0.00000
     24      18.4792      0.00000
     25      25.1739      0.00000
     26      25.1739      0.00000
     27      27.6091      0.00000
     28      27.6091      0.00000
     29      29.2726      0.00000
     30      29.2726      0.00000
     31      34.1920      0.00000
     32      34.1920      0.00000
     33      37.9699      0.00000
     34      37.9699      0.00000
     35      40.1549      0.00000
     36      40.1550      0.00000
     37      43.2978      0.00000
     38      43.2978      0.00000
     39      46.4374      0.00000
     40      46.4374      0.00000
     41      47.2365      0.00000
     42      47.2365      0.00000
     43      48.8702      0.00000
     44      48.8702      0.00000
     45      49.8839      0.00000
     46      49.8839      0.00000
     47      52.5344      0.00000
     48      52.5344      0.00000

 soft charge-density along one line, spin component           1
         0         1         2         3         4         5         6         7         8         9
 total charge-density along one line

------------------------ aborting loop because EDIFF is reached ----------------------------------------

  FORCE on cell =-STRESS in cart. coord.  units (eV):
  Direction    XX          YY          ZZ          XY          YZ          ZX
  Alpha Z   114.46506   114.46506   114.46506
  Ewald    -780.54983  -780.54983  -750.97886    -0.00000     0.00000     0.00000
  Hartree   239.20615   239.20615   253.12204     0.00000    -0.00000    -0.00000
  E(xc)    -126.70227  -126.70227  -126.69795    -0.00000    -0.00000    -0.00000
  Local     148.94690   148.94687   109.05531     0.00003    -0.00001    -0.00002
  n-local   -61.00331   -88.81880   -78.10115   -15.59915     0.91924    -1.49304
  augment   118.26928   118.26926   117.61621     0.00002     0.00000     0.00001
  Kinetic   349.36047   372.79523   361.28704    13.35807    -1.17648     1.12258
  Fock        0.00000     0.00000     0.00000     0.00000     0.00000     0.00000
  Total      -0.19794    -0.19794    -0.23230    -0.00000    -0.00000    -0.00000
  in kB      -9.12802    -9.12802   -10.71267    -0.00000    -0.00000    -0.00000

 VOLUME and BASIS-vectors are now :
  energy-cutoff  :      356.99
  volume of cell :       34.74
      direct lattice vectors                 reciprocal lattice vectors
     2.936640000  0.000000000  0.000000000     0.340525226 -0.196602331  0.000000000
     1.468320000  2.543204842  0.000000000     0.000000000  0.393204662  0.000000000
     0.000000000  0.000000000  4.651930000    -0.000000000 -0.000000000  0.214964542

  length of vectors
     2.936640000  2.936640000  4.651930000     0.393204662  0.393204662  0.214964542

 FORCES acting on ions
    electron-ion (+dipol)            ewald-force                    non-local-force                 convergence-correction
   -.929E-07 -.537E-07 -.947E-08   0.157E-11 0.901E-12 -.252E-13   -.237E-16 -.659E-17 0.828E-18   0.527E-07 0.304E-07 -.296E-12
   -.149E-05 -.859E-06 -.195E-07   -.157E-11 -.900E-12 0.252E-13   0.372E-16 -.813E-17 -.119E-17   -.527E-07 -.304E-07 0.353E-12
   -.158E-05 -.913E-06 -.290E-07   0.534E-14 0.781E-15 -.467E-16   0.135E-16 -.147E-16 -.366E-18   -.303E-10 -.175E-10 0.568E-13

 POSITION                                       TOTAL-FORCE (eV/Angst)
      0.00000      0.00000      0.00000         0.000000     -0.000000      0.000000
      1.46832      0.84773      2.32597        -0.000000      0.000000     -0.000000
    total drift:                               -0.000002     -0.000001     -0.000000

  FREE ENERGIE OF THE ION-ELECTRON SYSTEM (eV)
  free  energy   TOTEN  =       -15.64848533 eV

  energy  without entropy=      -15.64721327  energy(sigma->0) =      -15.64784930

 writing wavefunctions