 vasp.6.4.3 19Mar24 (build Jun 26 2024 13:02:28) complex

 executed on             LinuxIFC date 2025.08.08  18:43:37

 INCAR:
   ENCUT = 356.63680000000005
   IBRION = -1
   ISMEAR = 0
   ISYM = 2
   LCHARG = True
   LWAVE = True
   SIGMA = 0.05
   SYSTEM = Cd

 POTCAR:  PAW_PBE Cd 06Sep2000
|           W    W    AA    RRRRR   N    N  II  N    N   GGGG   !!!           |
|           W    W   A  A   R    R  NN   N  II  NN   N  G    G  !!!           |
|           W    W  A    A  R    R  N N  N  II  N N  N  G       !!!           |
|           W WW W  AAAAAA  RRRRR   N  N N  II  N  N N  G  GGG   !            |
|           WW  WW  A    A  R   R   N   NN  II  N   NN  G    G                |
|           W    W  A    A  R    R  N    N  II  N    N   GGGG   !!!           |
|     For optimal performance we recommend to set                             |
|       NCORE = 2 up to number-of-cores-per-socket                            |
|     This setting can greatly improve the performance of VASP for DFT.       |
|     The default, NCORE=1 might be grossly inefficient on modern             |
|     multi-core architectures or massively parallel machines. Do your        |
|     Unfortunately you need to use the default for GW and RPA                |
|     calculations (for HF NCORE is supported but not extensively tested      |
|     yet).                                                                   |

 POTCAR:  PAW_PBE Cd 06Sep2000
   VRHFIN =Cd : s2 d10

   TITEL  = PAW_PBE Cd 06Sep2000
   POMASS =  112.411; ZVAL   =   12.000    mass and valenz
   ENMAX  =  274.336; ENMIN  =  205.752 eV

PAW_PBE Cd 06Sep2000                    :

 POSCAR: Cd2
  positions in direct lattice

 exchange-correlation table for PE
   RHO(1)=    0.500       N(1)  =     2000
   RHO(2)=  100.500       N(2)  =     4000

 ion  position               nearest neighbor table
   1  0.000  0.000  0.000-   2 3.38   2 3.38   2 3.38   2 3.38   2 3.38   2 3.38
   2  0.333  0.333  0.500-   1 3.38   1 3.38   1 3.38   1 3.38   1 3.38   1 3.38

  LATTYP: Found a hexagonal cell.
 ALAT       =     3.0371600000
 C/A-ratio  =     1.9000019755

  Lattice vectors:

 A1 = (  -1.5185800000,  -2.6302577154,   0.0000000000)
 A2 = (   3.0371600000,   0.0000000000,   0.0000000000)
 A3 = (   0.0000000000,   0.0000000000,   5.7706100000)

Analysis of symmetry for initial positions (statically):
 Subroutine PRICEL returns:
 Original cell was already a primitive cell.

 Routine SETGRP: Setting up the symmetry group for a
 hexagonal supercell.

 Subroutine GETGRP returns: Found 24 space group operations
 (whereof 12 operations were pure point group operations)
 out of a pool of 24 trial point group operations.

The static configuration has the point symmetry D_3h.
 The point group associated with its full space group is D_6h.

Analysis of symmetry for dynamics (positions and initial velocities):
 Subroutine PRICEL returns:
 Original cell was already a primitive cell.

 Routine SETGRP: Setting up the symmetry group for a
 hexagonal supercell.

 Subroutine GETGRP returns: Found 24 space group operations
 (whereof 12 operations were pure point group operations)
 out of a pool of 24 trial point group operations.

The dynamic configuration has the point symmetry D_3h.
 The point group associated with its full space group is D_6h.

 Subroutine INISYM returns: Found 24 space group operations
 (whereof 12 operations are pure point group operations),
 and found     1 'primitive' translations

                                     Primitive cell

  volume of cell :      46.0986

  direct lattice vectors                    reciprocal lattice vectors
     3.037160000  0.000000000  0.000000000     0.329254962 -0.190095441  0.000000000
     1.518580000  2.630257715  0.000000000     0.000000000  0.380190882  0.000000000
     0.000000000  0.000000000  5.770610000    -0.000000000 -0.000000000  0.173291905

  length of vectors
     3.037160000  3.037160000  5.770610000     0.380190882  0.380190882  0.173291905

  position of ions in fractional coordinates (direct lattice)
     0.000000000  0.000000000  0.000000000
     0.333333333  0.333333333  0.500000000

  ion indices of the primitive-cell ions
   primitive index   ion index
                 1           1
                 2           2

 KPOINTS: Automatic kpoint scheme

Automatic generation of k-mesh.
 Grid dimensions read from file:
 generate k-points for:    8    8    8

 Generating k-lattice:

  Cartesian coordinates                     Fractional coordinates (reciprocal lattice)
     0.041156870 -0.023761930  0.000000000     0.125000000  0.000000000  0.000000000
     0.000000000  0.047523860  0.000000000     0.000000000  0.125000000  0.000000000
    -0.000000000 -0.000000000  0.021661488    -0.000000000 -0.000000000  0.125000000

  Length of vectors
     0.047523860  0.047523860  0.021661488

  Shift w.r.t. Gamma in fractional coordinates (k-lattice)
     0.000000000  0.000000000  0.000000000

 Subroutine IBZKPT returns following result:

 Found     50 irreducible k-points:

 Following reciprocal coordinates:
            Coordinates               Weight
  0.000000  0.000000  0.000000      1.000000
  0.125000 -0.000000  0.000000      6.000000
  0.250000 -0.000000  0.000000      6.000000
  0.375000 -0.000000  0.000000      6.000000
  0.500000 -0.000000  0.000000      3.000000
  0.250000  0.125000  0.000000      6.000000
  0.375000  0.125000  0.000000     12.000000
  0.500000  0.125000  0.000000     12.000000
  0.500000  0.250000  0.000000      6.000000
 -0.375000  0.250000  0.000000      6.000000
  0.000000  0.000000  0.125000      2.000000
  0.125000  0.000000  0.125000     12.000000
  0.250000 -0.000000  0.125000     12.000000
  0.375000 -0.000000  0.125000     12.000000
  0.500000 -0.000000  0.125000      6.000000
  0.250000  0.125000  0.125000     12.000000
  0.375000  0.125000  0.125000     24.000000
  0.500000  0.125000  0.125000     24.000000
  0.500000  0.250000  0.125000     12.000000
 -0.375000  0.250000  0.125000     12.000000
  0.000000  0.000000  0.250000      2.000000
  0.125000 -0.000000  0.250000     12.000000
  0.250000  0.000000  0.250000     12.000000
  0.375000  0.000000  0.250000     12.000000
  0.500000 -0.000000  0.250000      6.000000
  0.250000  0.125000  0.250000     12.000000
  0.375000  0.125000  0.250000     24.000000
  0.500000  0.125000  0.250000     24.000000
  0.500000  0.250000  0.250000     12.000000
 -0.375000  0.250000  0.250000     12.000000
  0.000000 -0.000000  0.375000      2.000000
  0.125000 -0.000000  0.375000     12.000000
  0.250000  0.000000  0.375000     12.000000
  0.375000  0.000000  0.375000     12.000000
  0.500000  0.000000  0.375000      6.000000
  0.250000  0.125000  0.375000     12.000000
  0.375000  0.125000  0.375000     24.000000
  0.500000  0.125000  0.375000     24.000000
  0.500000  0.250000  0.375000     12.000000
 -0.375000  0.250000  0.375000     12.000000
  0.000000  0.000000  0.500000      1.000000
  0.125000 -0.000000  0.500000      6.000000
  0.250000 -0.000000  0.500000      6.000000
  0.375000  0.000000  0.500000      6.000000
  0.500000  0.000000  0.500000      3.000000
  0.250000  0.125000  0.500000      6.000000
  0.375000  0.125000  0.500000     12.000000
  0.500000  0.125000  0.500000     12.000000
  0.500000  0.250000  0.500000      6.000000
 -0.375000  0.250000  0.500000      6.000000

 Following cartesian coordinates:
            Coordinates               Weight
  0.000000  0.000000  0.000000      1.000000
  0.041157 -0.023762  0.000000      6.000000
  0.082314 -0.047524  0.000000      6.000000
  0.123471 -0.071286  0.000000      6.000000
  0.164627 -0.095048  0.000000      3.000000
  0.082314 -0.000000  0.000000      6.000000
  0.123471 -0.023762  0.000000     12.000000
  0.164627 -0.047524  0.000000     12.000000
  0.164627 -0.000000  0.000000      6.000000
 -0.123471  0.166334  0.000000      6.000000
 -0.000000 -0.000000  0.021661      2.000000
  0.041157 -0.023762  0.021661     12.000000
  0.082314 -0.047524  0.021661     12.000000
  0.123471 -0.071286  0.021661     12.000000
  0.164627 -0.095048  0.021661      6.000000
  0.082314 -0.000000  0.021661     12.000000
  0.123471 -0.023762  0.021661     24.000000
  0.164627 -0.047524  0.021661     24.000000
  0.164627 -0.000000  0.021661     12.000000
 -0.123471  0.166334  0.021661     12.000000
 -0.000000 -0.000000  0.043323      2.000000
  0.041157 -0.023762  0.043323     12.000000
  0.082314 -0.047524  0.043323     12.000000
  0.123471 -0.071286  0.043323     12.000000
  0.164627 -0.095048  0.043323      6.000000
  0.082314 -0.000000  0.043323     12.000000
  0.123471 -0.023762  0.043323     24.000000
  0.164627 -0.047524  0.043323     24.000000
  0.164627 -0.000000  0.043323     12.000000
 -0.123471  0.166334  0.043323     12.000000
 -0.000000 -0.000000  0.064984      2.000000
  0.041157 -0.023762  0.064984     12.000000
  0.082314 -0.047524  0.064984     12.000000
  0.123471 -0.071286  0.064984     12.000000
  0.164627 -0.095048  0.064984      6.000000
  0.082314 -0.000000  0.064984     12.000000
  0.123471 -0.023762  0.064984     24.000000
  0.164627 -0.047524  0.064984     24.000000
  0.164627 -0.000000  0.064984     12.000000
 -0.123471  0.166334  0.064984     12.000000
 -0.000000 -0.000000  0.086646      1.000000
  0.041157 -0.023762  0.086646      6.000000
  0.082314 -0.047524  0.086646      6.000000
  0.123471 -0.071286  0.086646      6.000000
  0.164627 -0.095048  0.086646      3.000000
  0.082314 -0.000000  0.086646      6.000000
  0.123471 -0.023762  0.086646     12.000000
  0.164627 -0.047524  0.086646     12.000000
  0.164627 -0.000000  0.086646      6.000000
 -0.123471  0.166334  0.086646      6.000000

 Subroutine IBZKPT_HF returns following result:

 Found    512 k-points in 1st BZ
 the following    512 k-points will be used (e.g. in the exchange kernel)
 Following reciprocal coordinates:   # in IRBZ
  0.000000  0.000000  0.000000    0.00195312   1 t-inv F
  0.125000 -0.000000  0.000000    0.00195312   2 t-inv F
  0.250000 -0.000000  0.000000    0.00195312   3 t-inv F
  0.375000 -0.000000  0.000000    0.00195312   4 t-inv F
  0.500000 -0.000000  0.000000    0.00195312   5 t-inv F
  0.250000  0.125000  0.000000    0.00195312   6 t-inv F
  0.375000  0.125000  0.000000    0.00195312   7 t-inv F
  0.500000  0.125000  0.000000    0.00195312   8 t-inv F
  0.500000  0.250000  0.000000    0.00195312   9 t-inv F
 -0.375000  0.250000  0.000000    0.00195312  10 t-inv F
  0.000000  0.000000  0.125000    0.00195312  11 t-inv F
  0.125000  0.000000  0.125000    0.00195312  12 t-inv F
  0.250000 -0.000000  0.125000    0.00195312  13 t-inv F
  0.375000 -0.000000  0.125000    0.00195312  14 t-inv F
  0.500000 -0.000000  0.125000    0.00195312  15 t-inv F
  0.250000  0.125000  0.125000    0.00195312  16 t-inv F
  0.375000  0.125000  0.125000    0.00195312  17 t-inv F
  0.500000  0.125000  0.125000    0.00195312  18 t-inv F
  0.500000  0.250000  0.125000    0.00195312  19 t-inv F
 -0.375000  0.250000  0.125000    0.00195312  20 t-inv F
  0.000000  0.000000  0.250000    0.00195312  21 t-inv F
  0.125000 -0.000000  0.250000    0.00195312  22 t-inv F
[...]
  -0.12347061  0.16633351  0.04332298       0.023
  -0.00000000 -0.00000000  0.06498446       0.004
   0.04115687 -0.02376193  0.06498446       0.023
   0.08231374 -0.04752386  0.06498446       0.023
   0.12347061 -0.07128579  0.06498446       0.023
   0.16462748 -0.09504772  0.06498446       0.012
   0.08231374 -0.00000000  0.06498446       0.023
   0.12347061 -0.02376193  0.06498446       0.047
   0.16462748 -0.04752386  0.06498446       0.047
   0.16462748 -0.00000000  0.06498446       0.023
  -0.12347061  0.16633351  0.06498446       0.023
  -0.00000000 -0.00000000  0.08664595       0.002
   0.04115687 -0.02376193  0.08664595       0.012
   0.08231374 -0.04752386  0.08664595       0.012
   0.12347061 -0.07128579  0.08664595       0.012
   0.16462748 -0.09504772  0.08664595       0.006
   0.08231374 -0.00000000  0.08664595       0.012
   0.12347061 -0.02376193  0.08664595       0.023
   0.16462748 -0.04752386  0.08664595       0.023
   0.16462748 -0.00000000  0.08664595       0.012
  -0.12347061  0.16633351  0.08664595       0.012

 k-points in reciprocal lattice and weights: Automatic kpoint scheme
   0.00000000  0.00000000  0.00000000       0.002
   0.12500000 -0.00000000  0.00000000       0.012
   0.25000000 -0.00000000  0.00000000       0.012
   0.37500000 -0.00000000  0.00000000       0.012
   0.50000000 -0.00000000  0.00000000       0.006
   0.25000000  0.12500000  0.00000000       0.012
   0.37500000  0.12500000  0.00000000       0.023
   0.50000000  0.12500000  0.00000000       0.023
   0.50000000  0.25000000  0.00000000       0.012
  -0.37500000  0.25000000  0.00000000       0.012
   0.00000000  0.00000000  0.12500000       0.004
   0.12500000  0.00000000  0.12500000       0.023
   0.25000000 -0.00000000  0.12500000       0.023
   0.37500000 -0.00000000  0.12500000       0.023
   0.50000000 -0.00000000  0.12500000       0.012
   0.25000000  0.12500000  0.12500000       0.023
   0.37500000  0.12500000  0.12500000       0.047
   0.50000000  0.12500000  0.12500000       0.047
   0.50000000  0.25000000  0.12500000       0.023
  -0.37500000  0.25000000  0.12500000       0.023
   0.00000000  0.00000000  0.25000000       0.004
   0.12500000 -0.00000000  0.25000000       0.023
   0.25000000  0.00000000  0.25000000       0.023
   0.37500000  0.00000000  0.25000000       0.023
   0.50000000 -0.00000000  0.25000000       0.012
   0.25000000  0.12500000  0.25000000       0.023
   0.37500000  0.12500000  0.25000000       0.047
   0.50000000  0.12500000  0.25000000       0.047
   0.50000000  0.25000000  0.25000000       0.023
  -0.37500000  0.25000000  0.25000000       0.023
   0.00000000 -0.00000000  0.37500000       0.004
   0.12500000 -0.00000000  0.37500000       0.023
   0.25000000  0.00000000  0.37500000       0.023
   0.37500000  0.00000000  0.37500000       0.023
   0.50000000  0.00000000  0.37500000       0.012
   0.25000000  0.12500000  0.37500000       0.023
   0.37500000  0.12500000  0.37500000       0.047
   0.50000000  0.12500000  0.37500000       0.047
   0.50000000  0.25000000  0.37500000       0.023
  -0.37500000  0.25000000  0.37500000       0.023
   0.00000000  0.00000000  0.50000000       0.002
   0.12500000 -0.00000000  0.50000000       0.012
   0.25000000 -0.00000000  0.50000000       0.012
   0.37500000  0.00000000  0.50000000       0.012
   0.50000000  0.00000000  0.50000000       0.006
   0.25000000  0.12500000  0.50000000       0.012
   0.37500000  0.12500000  0.50000000       0.023
   0.50000000  0.12500000  0.50000000       0.023
   0.50000000  0.25000000  0.50000000       0.012
  -0.37500000  0.25000000  0.50000000       0.012

 position of ions in fractional coordinates (direct lattice)
   0.00000000  0.00000000  0.00000000
   0.33333333  0.33333333  0.50000000

 position of ions in cartesian coordinates  (Angst):
   0.00000000  0.00000000  0.00000000
   1.51858000  0.87675257  2.88530500

 k-point     1 :   0.0000 0.0000 0.0000  plane waves:     713
 k-point     2 :   0.1250-0.0000 0.0000  plane waves:     700
 k-point     3 :   0.2500-0.0000 0.0000  plane waves:     708
 k-point     4 :   0.3750-0.0000 0.0000  plane waves:     700
 k-point     5 :   0.5000-0.0000 0.0000  plane waves:     700
 k-point     6 :   0.2500 0.1250 0.0000  plane waves:     697
 k-point     7 :   0.3750 0.1250 0.0000  plane waves:     710
 k-point     8 :   0.5000 0.1250 0.0000  plane waves:     706
 k-point     9 :   0.5000 0.2500 0.0000  plane waves:     709
 k-point    10 :  -0.3750 0.2500 0.0000  plane waves:     696
 k-point    11 :   0.0000 0.0000 0.1250  plane waves:     702
 k-point    12 :   0.1250 0.0000 0.1250  plane waves:     706
 k-point    13 :   0.2500-0.0000 0.1250  plane waves:     705
 k-point    14 :   0.3750-0.0000 0.1250  plane waves:     706
 k-point    15 :   0.5000-0.0000 0.1250  plane waves:     706
 k-point    16 :   0.2500 0.1250 0.1250  plane waves:     709
 k-point    17 :   0.3750 0.1250 0.1250  plane waves:     707
 k-point    18 :   0.5000 0.1250 0.1250  plane waves:     703
 k-point    19 :   0.5000 0.2500 0.1250  plane waves:     712
 k-point    20 :  -0.3750 0.2500 0.1250  plane waves:     698
 k-point    21 :   0.0000 0.0000 0.2500  plane waves:     702
 k-point    22 :   0.1250-0.0000 0.2500  plane waves:     706
 k-point    23 :   0.2500 0.0000 0.2500  plane waves:     704
 k-point    24 :   0.3750 0.0000 0.2500  plane waves:     709
 k-point    25 :   0.5000-0.0000 0.2500  plane waves:     710
 k-point    26 :   0.2500 0.1250 0.2500  plane waves:     710
 k-point    27 :   0.3750 0.1250 0.2500  plane waves:     706
 k-point    28 :   0.5000 0.1250 0.2500  plane waves:     708
 k-point    29 :   0.5000 0.2500 0.2500  plane waves:     703
 k-point    30 :  -0.3750 0.2500 0.2500  plane waves:     694
 k-point    31 :   0.0000-0.0000 0.3750  plane waves:     720
 k-point    32 :   0.1250-0.0000 0.3750  plane waves:     715
 k-point    33 :   0.2500 0.0000 0.3750  plane waves:     707
 k-point    34 :   0.3750 0.0000 0.3750  plane waves:     704
 k-point    35 :   0.5000 0.0000 0.3750  plane waves:     706
 k-point    36 :   0.2500 0.1250 0.3750  plane waves:     710
 k-point    37 :   0.3750 0.1250 0.3750  plane waves:     701
 k-point    38 :   0.5000 0.1250 0.3750  plane waves:     703
 k-point    39 :   0.5000 0.2500 0.3750  plane waves:     703
 k-point    40 :  -0.3750 0.2500 0.3750  plane waves:     696
 k-point    41 :   0.0000 0.0000 0.5000  plane waves:     726
 k-point    42 :   0.1250-0.0000 0.5000  plane waves:     720
 k-point    43 :   0.2500-0.0000 0.5000  plane waves:     716
 k-point    44 :   0.3750 0.0000 0.5000  plane waves:     702
 k-point    45 :   0.5000 0.0000 0.5000  plane waves:     688
 k-point    46 :   0.2500 0.1250 0.5000  plane waves:     704
 k-point    47 :   0.3750 0.1250 0.5000  plane waves:     704
 k-point    48 :   0.5000 0.1250 0.5000  plane waves:     704
 k-point    49 :   0.5000 0.2500 0.5000  plane waves:     698
 k-point    50 :  -0.3750 0.2500 0.5000  plane waves:     698

 maximum and minimum number of plane-waves per node :       726      688

 maximum number of plane-waves:       726
 maximum index in each direction:
   IXMAX=    5   IYMAX=    4   IZMAX=    8
   IXMIN=   -5   IYMIN=   -4   IZMIN=   -9

 serial   3D FFT for wavefunctions
 parallel 3D FFT for charge:
    minimum data exchange during FFTs selected (reduces bandwidth)

 Broyden mixing: mesh for mixing (old mesh)
   NGX =  9   NGY =  9   NGZ = 17
  (NGX  = 28   NGY  = 28   NGZ  = 56)
  gives a total of   1377 points

 charge density for first step will be calculated from the start-wavefunctions

 Maximum index for augmentation-charges          323 (set IRDMAX)

 initial charge from wavefunction
 First call to EWALD:  gamma=   0.494
 Maximum number of real-space cells 4x 4x 2
 Maximum number of reciprocal cells 2x 2x 4

--------------------------------------- Ionic step        1  -------------------------------------------

--------------------------------------- Iteration      1(   1)  ---------------------------------------

 eigenvalue-minimisations  :  2544
 total energy-change (2. order) :-0.1450421E+01  (-0.3943985E-05)
 number of electron      24.0000077 magnetization
 augmentation part       11.4385259 magnetization

 Broyden mixing:
  rms(total) = 0.12605E-02    rms(broyden)= 0.12582E-02
  rms(prec ) = 0.16062E-02
  weight for this iteration     100.00

 Free energy of the ion-electron system (eV)
  alpha Z        PSCENC =       193.16787861
  Ewald energy   TEWEN  =     -2096.48189481
  -Hartree energ DENC   =      -631.56103893
  -exchange      EXHF   =         0.00000000
  -V(xc)+E(xc)   XCENC  =        10.41500439
  PAW double counting   =      2502.38633338    -2434.69101493
  entropy T*S    EENTRO =        -0.00251193
  eigenvalues    EBANDS =      -130.95339542
  atomic energy  EATOM  =      2586.27021872
  Solvation  Ediel_sol  =         0.00000000
  free energy    TOTEN  =        -1.45042092 eV

  energy without entropy =       -1.44790899  energy(sigma->0) =       -1.44916495

--------------------------------------- Iteration      1(   2)  ---------------------------------------

 eigenvalue-minimisations  :  2400
 total energy-change (2. order) : 0.8486491E-06  (-0.6475100E-06)
 number of electron      24.0000077 magnetization
 augmentation part       11.4385259 magnetization

 Free energy of the ion-electron system (eV)
  alpha Z        PSCENC =       193.16787861
  Ewald energy   TEWEN  =     -2096.48189481
  -Hartree energ DENC   =      -631.59535198
  -exchange      EXHF   =         0.00000000
  -V(xc)+E(xc)   XCENC  =        10.41626973
  PAW double counting   =      2502.35649248    -2434.66255545
  entropy T*S    EENTRO =        -0.00251227
  eigenvalues    EBANDS =      -130.91896511
  atomic energy  EATOM  =      2586.27021872
  Solvation  Ediel_sol  =         0.00000000
  free energy    TOTEN  =        -1.45042007 eV

  energy without entropy =       -1.44790779  energy(sigma->0) =       -1.44916393

 average (electrostatic) potential at core
  the test charge radii are     1.0698
  (the norm of the test charge is              1.0000)
       1 -39.7472       2 -39.7473

 E-fermi :   2.4986     XC(G=0): -10.6871     alpha+bet : -6.3818

 val. band max:        2.4737017711   @ k =   0.5000   0.0000   0.5000
 cond. band min:       2.5092313624   @ k =   0.5000   0.1250   0.0000
 fundamental gap:      0.0355295912
 Fermi energy:         2.4985828289

 k-point     1 :       0.0000    0.0000    0.0000
  band No.  band energies     occupation
      1      -7.1060      2.00000
      2      -6.8905      2.00000
      3      -6.5702      2.00000
      4      -6.5702      2.00000
      5      -6.5281      2.00000
      6      -6.5281      2.00000
      7      -6.1061      2.00000
      8      -6.1061      2.00000
      9      -5.9015      2.00000
     10      -5.8967      2.00000
     11      -5.8967      2.00000
     12      -0.6160      2.00000
     13      -0.2482      2.00000
     14      12.5074      0.00000
     15      16.5888      0.00000
     16      16.7650      0.00000
     17      16.8168      0.00000
     18      16.8168      0.00000
     19      17.9245      0.00000
     20      18.4187      0.00000
     21      18.4187      0.00000
     22      21.0445      0.00000
     23      21.7814      0.00000
     24      21.7814      0.00000
     25      22.2639      0.00000
     26      22.6207      0.00000
     27      22.6207      0.00000
     28      23.2057      0.00000
     29      23.2057      0.00000
     30      23.8638      0.00000
     31      23.8639      0.00000
     32      24.2326      0.00000
     33      28.4813      0.00000
     34      33.0440      0.00000
     35      34.1368      0.00000
     36      34.1368      0.00000
     37      34.6553      0.00000
     38      34.6553      0.00000
     39      35.2147      0.00000
     40      35.5078      0.00000
     41      35.5078      0.00000
     42      35.9563      0.00000
     43      37.7546      0.00000
     44      37.7546      0.00000
     45      38.2653      0.00000
     46      38.5968      0.00000
     47      46.3005      0.00000
     48      51.1888      0.00000

[...]

 k-point    50 :      -0.3750    0.2500    0.5000
  band No.  band energies     occupation
      1      -6.7486      2.00000
      2      -6.7485      2.00000
      3      -6.6553      2.00000
      4      -6.6552      2.00000
      5      -6.3999      2.00000
      6      -6.3999      2.00000
      7      -6.1229      2.00000
      8      -6.1228      2.00000
      9      -5.9049      2.00000
     10      -5.9049      2.00000
     11       2.7314      0.00000
     12       2.7315      0.00000
     13       3.3091      0.00000
     14       3.3091      0.00000
     15       6.0811      0.00000
     16       6.0812      0.00000
     17      11.4753      0.00000
     18      11.4753      0.00000
     19      14.1590      0.00000
     20      14.1590      0.00000
     21      16.1806      0.00000
     22      16.1806      0.00000
     23      23.3470      0.00000
     24      23.3471      0.00000
     25      27.8607      0.00000
     26      27.8608      0.00000
     27      28.1913      0.00000
     28      28.1913      0.00000
     29      29.3825      0.00000
     30      29.3825      0.00000
     31      31.1455      0.00000
     32      31.1455      0.00000
     33      31.4665      0.00000
     34      31.4665      0.00000
     35      34.4445      0.00000
     36      34.4445      0.00000
     37      37.1524      0.00000
     38      37.1524      0.00000
     39      38.2224      0.00000
     40      38.2224      0.00000
     41      42.0658      0.00000
     42      42.0658      0.00000
     43      43.5491      0.00000
     44      43.5491      0.00000
     45      45.1226      0.00000
     46      45.1226      0.00000
     47      47.0212      0.00000
     48      47.0213      0.00000

 soft charge-density along one line, spin component           1
         0         1         2         3         4         5         6         7         8         9
 total charge-density along one line

------------------------ aborting loop because EDIFF is reached ----------------------------------------

  FORCE on cell =-STRESS in cart. coord.  units (eV):
  Direction    XX          YY          ZZ          XY          YZ          ZX
  Alpha Z   193.16788   193.16788   193.16788
  Ewald    -641.99257  -641.99257  -812.49698    -0.00000     0.00000     0.00000
  Hartree   243.78424   243.78424   144.04602     0.00000     0.00000     0.00000
  E(xc)    -126.61687  -126.61687  -126.90337    -0.00001    -0.00000    -0.00000
  Local     134.15411   134.15385   403.22187     0.00023     0.00001     0.00003
  n-local  -166.38328  -170.36314  -169.33822    -1.33708     0.31533    -0.60405
  augment    65.44115    65.44137    65.66231    -0.00019     0.00000     0.00000
  Kinetic   308.44911   292.49788   301.91108    -6.27016     0.99461    -2.38240
  Fock        0.00000     0.00000     0.00000     0.00000     0.00000     0.00000
  Total       0.03821     0.03821    -0.72941    -0.00000     0.00000    -0.00000
  in kB       1.32790     1.32790   -25.35113    -0.00000     0.00000    -0.00000

 VOLUME and BASIS-vectors are now :
  energy-cutoff  :      356.64
  volume of cell :       46.10
      direct lattice vectors                 reciprocal lattice vectors
     3.037160000  0.000000000  0.000000000     0.329254962 -0.190095441  0.000000000
     1.518580000  2.630257715  0.000000000     0.000000000  0.380190882  0.000000000
     0.000000000  0.000000000  5.770610000    -0.000000000 -0.000000000  0.173291905

  length of vectors
     3.037160000  3.037160000  5.770610000     0.380190882  0.380190882  0.173291905

 FORCES acting on ions
    electron-ion (+dipol)            ewald-force                    non-local-force                 convergence-correction
   -.900E-06 -.519E-06 -.343E-07   0.482E-12 0.272E-12 -.393E-13   -.213E-16 0.669E-17 -.179E-17   0.822E-08 0.475E-08 0.435E-12
   -.710E-06 -.410E-06 -.114E-05   -.485E-12 -.273E-12 0.393E-13   0.263E-16 -.225E-17 0.218E-17   -.818E-08 -.473E-08 0.279E-12
   -.161E-05 -.930E-06 -.117E-05   -.311E-14 -.983E-15 -.118E-16   0.504E-17 0.444E-17 0.387E-18   0.404E-10 0.234E-10 0.714E-12

 POSITION                                       TOTAL-FORCE (eV/Angst)
      0.00000      0.00000      0.00000        -0.000000     -0.000000      0.000000
      1.51858      0.87675      2.88530         0.000000      0.000000     -0.000000
    total drift:                               -0.000002     -0.000001     -0.000001

  FREE ENERGIE OF THE ION-ELECTRON SYSTEM (eV)
  free  energy   TOTEN  =        -1.45042007 eV

  energy  without entropy=       -1.44790779  energy(sigma->0) =       -1.44916393

 writing wavefunctions