 vasp.6.4.3 19Mar24 (build Jun 26 2024 13:02:28) complex

 executed on             LinuxIFC date 2025.08.08  19:07:01

 INCAR:
   ENCUT = 286.4134
   IBRION = -1
   ISMEAR = 0
   ISYM = 2
   LCHARG = True
   LWAVE = True
   SIGMA = 0.05
   SYSTEM = Cs

 POTCAR:  PAW_PBE Cs_sv 08Apr2002
|           W    W    AA    RRRRR   N    N  II  N    N   GGGG   !!!           |
|           W    W   A  A   R    R  NN   N  II  NN   N  G    G  !!!           |
|           W    W  A    A  R    R  N N  N  II  N N  N  G       !!!           |
|           W WW W  AAAAAA  RRRRR   N  N N  II  N  N N  G  GGG   !            |
|           WW  WW  A    A  R   R   N   NN  II  N   NN  G    G                |
|           W    W  A    A  R    R  N    N  II  N    N   GGGG   !!!           |
|     For optimal performance we recommend to set                             |
|       NCORE = 2 up to number-of-cores-per-socket                            |
|     This setting can greatly improve the performance of VASP for DFT.       |
|     The default, NCORE=1 might be grossly inefficient on modern             |
|     multi-core architectures or massively parallel machines. Do your        |
|     Unfortunately you need to use the default for GW and RPA                |
|     calculations (for HF NCORE is supported but not extensively tested      |
|     yet).                                                                   |

 POTCAR:  PAW_PBE Cs_sv 08Apr2002
   VRHFIN =Cs: 5s5p6s

   TITEL  = PAW_PBE Cs_sv 08Apr2002
   POMASS =  132.900; ZVAL   =    9.000    mass and valenz
   ENMAX  =  220.318; ENMIN  =  165.238 eV

PAW_PBE Cs_sv 08Apr2002                 :

 POSCAR: Cs2
  positions in direct lattice

 exchange-correlation table for PE
   RHO(1)=    0.500       N(1)  =     2000
   RHO(2)=  100.500       N(2)  =     4000

 ion  position               nearest neighbor table
   1  0.000  0.000  0.000-
   2  0.500  0.500  0.500-

  LATTYP: Found a simple cubic cell.
 ALAT       =     6.1615300000

  Lattice vectors:

 A1 = (   6.1615300000,   0.0000000000,   0.0000000000)
 A2 = (   0.0000000000,   6.1615300000,   0.0000000000)
 A3 = (   0.0000000000,   0.0000000000,   6.1615300000)

Analysis of symmetry for initial positions (statically):
 Subroutine PRICEL returns following result:

  LATTYP: Found a body centered cubic cell.
 ALAT       =     6.1615300000

[...]

   2 primitive cells build up your supercell.

 Routine SETGRP: Setting up the symmetry group for a
 simple cubic supercell.

 Subroutine GETGRP returns: Found 48 space group operations
 (whereof 48 operations were pure point group operations)
 out of a pool of 48 trial point group operations.

The static configuration has the point symmetry O_h .

Analysis of symmetry for dynamics (positions and initial velocities):
 Subroutine PRICEL returns following result:

  LATTYP: Found a body centered cubic cell.
 ALAT       =     6.1615300000

  Lattice vectors:

 A1 = (   3.0807650000,   3.0807650000,  -3.0807650000)
 A2 = (  -3.0807650000,   3.0807650000,   3.0807650000)
 A3 = (   3.0807650000,  -3.0807650000,   3.0807650000)

   2 primitive cells build up your supercell.

 Routine SETGRP: Setting up the symmetry group for a
 simple cubic supercell.

 Subroutine GETGRP returns: Found 48 space group operations
 (whereof 48 operations were pure point group operations)
 out of a pool of 48 trial point group operations.

The dynamic configuration has the point symmetry O_h .

 Subroutine INISYM returns: Found 48 space group operations
 (whereof 48 operations are pure point group operations),
 and found     2 'primitive' translations

                                     Primitive cell

  volume of cell :     116.9596

  direct lattice vectors                    reciprocal lattice vectors
     3.080765000  3.080765000 -3.080765000     0.162297351  0.162297351 -0.000000000
    -3.080765000  3.080765000  3.080765000    -0.000000000  0.162297351  0.162297351
     3.080765000 -3.080765000  3.080765000     0.162297351 -0.000000000  0.162297351

  length of vectors
     5.336041506  5.336041506  5.336041506     0.229523116  0.229523116  0.229523116

  position of ions in fractional coordinates (direct lattice)
     0.000000000  0.000000000  0.000000000

  ion indices of the primitive-cell ions
   primitive index   ion index
                 1           1

 KPOINTS: Automatic kpoint scheme

Automatic generation of k-mesh.
 Grid dimensions read from file:
 generate k-points for:    8    8    8

 Generating k-lattice:

  Cartesian coordinates                     Fractional coordinates (reciprocal lattice)
     0.020287169 -0.000000000  0.000000000     0.125000000 -0.000000000  0.000000000
     0.000000000  0.020287169  0.000000000     0.000000000  0.125000000  0.000000000
    -0.000000000 -0.000000000  0.020287169    -0.000000000 -0.000000000  0.125000000

  Length of vectors
     0.020287169  0.020287169  0.020287169

  Shift w.r.t. Gamma in fractional coordinates (k-lattice)
     0.000000000  0.000000000  0.000000000

 Subroutine IBZKPT returns following result:

 Found     35 irreducible k-points:

 Following reciprocal coordinates:
            Coordinates               Weight
  0.000000  0.000000  0.000000      1.000000
  0.125000 -0.000000  0.000000      6.000000
  0.250000 -0.000000  0.000000      6.000000
  0.375000 -0.000000  0.000000      6.000000
  0.500000 -0.000000  0.000000      3.000000
  0.125000  0.125000  0.000000     12.000000
  0.250000  0.125000  0.000000     24.000000
  0.375000  0.125000  0.000000     24.000000
  0.500000  0.125000  0.000000     12.000000
  0.250000  0.250000  0.000000     12.000000
  0.375000  0.250000  0.000000     24.000000
  0.500000  0.250000  0.000000     12.000000
  0.375000  0.375000  0.000000     12.000000
  0.500000  0.375000  0.000000     12.000000
  0.500000  0.500000  0.000000      3.000000
  0.125000  0.125000  0.125000      8.000000
  0.250000  0.125000  0.125000     24.000000
  0.375000  0.125000  0.125000     24.000000
  0.500000  0.125000  0.125000     12.000000
  0.250000  0.250000  0.125000     24.000000
  0.375000  0.250000  0.125000     48.000000
  0.500000  0.250000  0.125000     24.000000
  0.375000  0.375000  0.125000     24.000000
  0.500000  0.375000  0.125000     24.000000
  0.500000  0.500000  0.125000      6.000000
  0.250000  0.250000  0.250000      8.000000
  0.375000  0.250000  0.250000     24.000000
  0.500000  0.250000  0.250000     12.000000
  0.375000  0.375000  0.250000     24.000000
  0.500000  0.375000  0.250000     24.000000
  0.500000  0.500000  0.250000      6.000000
  0.375000  0.375000  0.375000      8.000000
  0.500000  0.375000  0.375000     12.000000
  0.500000  0.500000  0.375000      6.000000
  0.500000  0.500000  0.500000      1.000000

 Following cartesian coordinates:
            Coordinates               Weight
  0.000000  0.000000  0.000000      1.000000
  0.020287 -0.000000  0.000000      6.000000
  0.040574 -0.000000  0.000000      6.000000
  0.060862 -0.000000  0.000000      6.000000
  0.081149 -0.000000  0.000000      3.000000
  0.020287  0.020287  0.000000     12.000000
  0.040574  0.020287  0.000000     24.000000
  0.060862  0.020287  0.000000     24.000000
  0.081149  0.020287  0.000000     12.000000
  0.040574  0.040574  0.000000     12.000000
  0.060862  0.040574  0.000000     24.000000
  0.081149  0.040574  0.000000     12.000000
  0.060862  0.060862  0.000000     12.000000
  0.081149  0.060862  0.000000     12.000000
  0.081149  0.081149  0.000000      3.000000
  0.020287  0.020287  0.020287      8.000000
  0.040574  0.020287  0.020287     24.000000
  0.060862  0.020287  0.020287     24.000000
  0.081149  0.020287  0.020287     12.000000
  0.040574  0.040574  0.020287     24.000000
  0.060862  0.040574  0.020287     48.000000
  0.081149  0.040574  0.020287     24.000000
  0.060862  0.060862  0.020287     24.000000
  0.081149  0.060862  0.020287     24.000000
  0.081149  0.081149  0.020287      6.000000
  0.040574  0.040574  0.040574      8.000000
  0.060862  0.040574  0.040574     24.000000
  0.081149  0.040574  0.040574     12.000000
  0.060862  0.060862  0.040574     24.000000
  0.081149  0.060862  0.040574     24.000000
  0.081149  0.081149  0.040574      6.000000
  0.060862  0.060862  0.060862      8.000000
  0.081149  0.060862  0.060862     12.000000
  0.081149  0.081149  0.060862      6.000000
  0.081149  0.081149  0.081149      1.000000

 Subroutine IBZKPT_HF returns following result:

 Found    512 k-points in 1st BZ
 the following    512 k-points will be used (e.g. in the exchange kernel)
 Following reciprocal coordinates:   # in IRBZ
  0.000000  0.000000  0.000000    0.00195312   1 t-inv F
  0.125000 -0.000000  0.000000    0.00195312   2 t-inv F
  0.250000 -0.000000  0.000000    0.00195312   3 t-inv F
  0.375000 -0.000000  0.000000    0.00195312   4 t-inv F
  0.500000 -0.000000  0.000000    0.00195312   5 t-inv F
  0.125000  0.125000  0.000000    0.00195312   6 t-inv F
  0.250000  0.125000  0.000000    0.00195312   7 t-inv F
  0.375000  0.125000  0.000000    0.00195312   8 t-inv F
  0.500000  0.125000  0.000000    0.00195312   9 t-inv F
  0.250000  0.250000  0.000000    0.00195312  10 t-inv F
  0.375000  0.250000  0.000000    0.00195312  11 t-inv F
  0.500000  0.250000  0.000000    0.00195312  12 t-inv F
  0.375000  0.375000  0.000000    0.00195312  13 t-inv F
  0.500000  0.375000  0.000000    0.00195312  14 t-inv F
  0.500000  0.500000  0.000000    0.00195312  15 t-inv F
  0.125000  0.125000  0.125000    0.00195312  16 t-inv F
  0.250000  0.125000  0.125000    0.00195312  17 t-inv F
  0.375000  0.125000  0.125000    0.00195312  18 t-inv F
  0.500000  0.125000  0.125000    0.00195312  19 t-inv F
  0.250000  0.250000  0.125000    0.00195312  20 t-inv F
  0.375000  0.250000  0.125000    0.00195312  21 t-inv F
  0.500000  0.250000  0.125000    0.00195312  22 t-inv F
  0.375000  0.375000  0.125000    0.00195312  23 t-inv F
  0.500000  0.375000  0.125000    0.00195312  24 t-inv F
  0.500000  0.500000  0.125000    0.00195312  25 t-inv F
  0.250000  0.250000  0.250000    0.00195312  26 t-inv F
  0.375000  0.250000  0.250000    0.00195312  27 t-inv F
  0.500000  0.250000  0.250000    0.00195312  28 t-inv F
  0.375000  0.375000  0.250000    0.00195312  29 t-inv F
  0.500000  0.375000  0.250000    0.00195312  30 t-inv F
  0.500000  0.500000  0.250000    0.00195312  31 t-inv F
  0.375000  0.375000  0.375000    0.00195312  32 t-inv F
  0.500000  0.375000  0.375000    0.00195312  33 t-inv F
  0.500000  0.500000  0.375000    0.00195312  34 t-inv F
  0.500000  0.500000  0.500000    0.00195312  35 t-inv F
 -0.125000  0.000000  0.000000    0.00195312   2 t-inv F
  0.000000  0.125000 -0.000000    0.00195312   2 t-inv F
  0.000000 -0.125000  0.000000    0.00195312   2 t-inv F
 -0.000000  0.000000  0.125000    0.00195312   2 t-inv F
  0.000000  0.000000 -0.125000    0.00195312   2 t-inv F
 -0.250000  0.000000  0.000000    0.00195312   3 t-inv F
  0.000000  0.250000 -0.000000    0.00195312   3 t-inv F
  0.000000 -0.250000  0.000000    0.00195312   3 t-inv F
 -0.000000  0.000000  0.250000    0.00195312   3 t-inv F
  0.000000  0.000000 -0.250000    0.00195312   3 t-inv F
[...]
 Gauss-broadening in eV      SIGMA  =   0.05

  energy-cutoff  :      286.41
  volume of cell :      233.92
      direct lattice vectors                 reciprocal lattice vectors
     6.161530000  0.000000000  0.000000000     0.162297351 -0.000000000  0.000000000
     0.000000000  6.161530000  0.000000000     0.000000000  0.162297351  0.000000000
     0.000000000  0.000000000  6.161530000    -0.000000000 -0.000000000  0.162297351

[...]

 old parameters found on file WAVECAR:
  energy-cutoff  :      286.41
  volume of cell :      233.92
      direct lattice vectors                 reciprocal lattice vectors
     6.161530000  0.000000000  0.000000000     0.162297351 -0.000000000  0.000000000
     0.000000000  6.161530000  0.000000000     0.000000000  0.162297351  0.000000000
     0.000000000  0.000000000  6.161530000    -0.000000000 -0.000000000  0.162297351

  length of vectors

 k-points in units of 2pi/SCALE and weight: Automatic kpoint scheme
   0.00000000  0.00000000  0.00000000       0.002
   0.02028717 -0.00000000  0.00000000       0.012
   0.04057434 -0.00000000  0.00000000       0.012
   0.06086151 -0.00000000  0.00000000       0.012
   0.08114868 -0.00000000  0.00000000       0.006
   0.02028717  0.02028717  0.00000000       0.023
   0.04057434  0.02028717  0.00000000       0.047
   0.06086151  0.02028717  0.00000000       0.047
   0.08114868  0.02028717  0.00000000       0.023
   0.04057434  0.04057434  0.00000000       0.023
   0.06086151  0.04057434  0.00000000       0.047
   0.08114868  0.04057434  0.00000000       0.023
   0.06086151  0.06086151  0.00000000       0.023
   0.08114868  0.06086151  0.00000000       0.023
   0.08114868  0.08114868  0.00000000       0.006
   0.02028717  0.02028717  0.02028717       0.016
   0.04057434  0.02028717  0.02028717       0.047
   0.06086151  0.02028717  0.02028717       0.047
   0.08114868  0.02028717  0.02028717       0.023
   0.04057434  0.04057434  0.02028717       0.047
   0.06086151  0.04057434  0.02028717       0.094
   0.08114868  0.04057434  0.02028717       0.047
   0.06086151  0.06086151  0.02028717       0.047
   0.08114868  0.06086151  0.02028717       0.047
   0.08114868  0.08114868  0.02028717       0.012
   0.04057434  0.04057434  0.04057434       0.016
   0.06086151  0.04057434  0.04057434       0.047
   0.08114868  0.04057434  0.04057434       0.023
   0.06086151  0.06086151  0.04057434       0.047
   0.08114868  0.06086151  0.04057434       0.047
   0.08114868  0.08114868  0.04057434       0.012
   0.06086151  0.06086151  0.06086151       0.016
   0.08114868  0.06086151  0.06086151       0.023
   0.08114868  0.08114868  0.06086151       0.012
   0.08114868  0.08114868  0.08114868       0.002

 k-points in reciprocal lattice and weights: Automatic kpoint scheme
   0.00000000  0.00000000  0.00000000       0.002
   0.12500000 -0.00000000  0.00000000       0.012
   0.25000000 -0.00000000  0.00000000       0.012
   0.37500000 -0.00000000  0.00000000       0.012
   0.50000000 -0.00000000  0.00000000       0.006
   0.12500000  0.12500000  0.00000000       0.023
   0.25000000  0.12500000  0.00000000       0.047
   0.37500000  0.12500000  0.00000000       0.047
   0.50000000  0.12500000  0.00000000       0.023
   0.25000000  0.25000000  0.00000000       0.023
   0.37500000  0.25000000  0.00000000       0.047
   0.50000000  0.25000000  0.00000000       0.023
   0.37500000  0.37500000  0.00000000       0.023
   0.50000000  0.37500000  0.00000000       0.023
   0.50000000  0.50000000  0.00000000       0.006
   0.12500000  0.12500000  0.12500000       0.016
   0.25000000  0.12500000  0.12500000       0.047
   0.37500000  0.12500000  0.12500000       0.047
   0.50000000  0.12500000  0.12500000       0.023
   0.25000000  0.25000000  0.12500000       0.047
   0.37500000  0.25000000  0.12500000       0.094
   0.50000000  0.25000000  0.12500000       0.047
   0.37500000  0.37500000  0.12500000       0.047
   0.50000000  0.37500000  0.12500000       0.047
   0.50000000  0.50000000  0.12500000       0.012
   0.25000000  0.25000000  0.25000000       0.016
   0.37500000  0.25000000  0.25000000       0.047
   0.50000000  0.25000000  0.25000000       0.023
   0.37500000  0.37500000  0.25000000       0.047
   0.50000000  0.37500000  0.25000000       0.047
   0.50000000  0.50000000  0.25000000       0.012
   0.37500000  0.37500000  0.37500000       0.016
   0.50000000  0.37500000  0.37500000       0.023
   0.50000000  0.50000000  0.37500000       0.012
   0.50000000  0.50000000  0.50000000       0.002

 position of ions in fractional coordinates (direct lattice)
   0.00000000  0.00000000  0.00000000
   0.50000000  0.50000000  0.50000000

 position of ions in cartesian coordinates  (Angst):
   0.00000000  0.00000000  0.00000000
   3.08076500  3.08076500  3.08076500

 k-point     1 :   0.0000 0.0000 0.0000  plane waves:    2553
 k-point     2 :   0.1250-0.0000 0.0000  plane waves:    2573
 k-point     3 :   0.2500-0.0000 0.0000  plane waves:    2561
 k-point     4 :   0.3750-0.0000 0.0000  plane waves:    2585
 k-point     5 :   0.5000-0.0000 0.0000  plane waves:    2594
 k-point     6 :   0.1250 0.1250 0.0000  plane waves:    2590
 k-point     7 :   0.2500 0.1250 0.0000  plane waves:    2574
 k-point     8 :   0.3750 0.1250 0.0000  plane waves:    2576
 k-point     9 :   0.5000 0.1250 0.0000  plane waves:    2588
 k-point    10 :   0.2500 0.2500 0.0000  plane waves:    2612
 k-point    11 :   0.3750 0.2500 0.0000  plane waves:    2587
 k-point    12 :   0.5000 0.2500 0.0000  plane waves:    2562
 k-point    13 :   0.3750 0.3750 0.0000  plane waves:    2588
 k-point    14 :   0.5000 0.3750 0.0000  plane waves:    2578
 k-point    15 :   0.5000 0.5000 0.0000  plane waves:    2544
 k-point    16 :   0.1250 0.1250 0.1250  plane waves:    2581
 k-point    17 :   0.2500 0.1250 0.1250  plane waves:    2579
 k-point    18 :   0.3750 0.1250 0.1250  plane waves:    2583
 k-point    19 :   0.5000 0.1250 0.1250  plane waves:    2586
 k-point    20 :   0.2500 0.2500 0.1250  plane waves:    2582
 k-point    21 :   0.3750 0.2500 0.1250  plane waves:    2584
 k-point    22 :   0.5000 0.2500 0.1250  plane waves:    2570
 k-point    23 :   0.3750 0.3750 0.1250  plane waves:    2576
 k-point    24 :   0.5000 0.3750 0.1250  plane waves:    2566
 k-point    25 :   0.5000 0.5000 0.1250  plane waves:    2572
 k-point    26 :   0.2500 0.2500 0.2500  plane waves:    2584
 k-point    27 :   0.3750 0.2500 0.2500  plane waves:    2576
 k-point    28 :   0.5000 0.2500 0.2500  plane waves:    2554
 k-point    29 :   0.3750 0.3750 0.2500  plane waves:    2559
 k-point    30 :   0.5000 0.3750 0.2500  plane waves:    2562
 k-point    31 :   0.5000 0.5000 0.2500  plane waves:    2544
 k-point    32 :   0.3750 0.3750 0.3750  plane waves:    2563
 k-point    33 :   0.5000 0.3750 0.3750  plane waves:    2560
 k-point    34 :   0.5000 0.5000 0.3750  plane waves:    2536
 k-point    35 :   0.5000 0.5000 0.5000  plane waves:    2512

 maximum and minimum number of plane-waves per node :      2612     2512

 maximum number of plane-waves:      2612
 maximum index in each direction:
   IXMAX=    8   IYMAX=    8   IZMAX=    8
   IXMIN=   -9   IYMIN=   -8   IZMIN=   -8

 serial   3D FFT for wavefunctions
 parallel 3D FFT for charge:
    minimum data exchange during FFTs selected (reduces bandwidth)

 Broyden mixing: mesh for mixing (old mesh)
   NGX = 17   NGY = 17   NGZ = 17
  (NGX  = 56   NGY  = 56   NGZ  = 56)
  gives a total of   4913 points

 charge density for first step will be calculated from the start-wavefunctions

 Maximum index for augmentation-charges          470 (set IRDMAX)

 initial charge from wavefunction
 First call to EWALD:  gamma=   0.288
 Maximum number of real-space cells 3x 3x 3
 Maximum number of reciprocal cells 3x 3x 3

--------------------------------------- Ionic step        1  -------------------------------------------

--------------------------------------- Iteration      1(   1)  ---------------------------------------

 eigenvalue-minimisations  :  2784
 total energy-change (2. order) :-0.1707210E+01  (-0.1843079E-06)
 number of electron      17.9999928 magnetization
 augmentation part       -4.0398736 magnetization

 Broyden mixing:
  rms(total) = 0.60348E-04    rms(broyden)= 0.60335E-04
  rms(prec ) = 0.12120E-03
  weight for this iteration     100.00

 Free energy of the ion-electron system (eV)
  alpha Z        PSCENC =        30.73942618
  Ewald energy   TEWEN  =      -688.90992671
  -Hartree energ DENC   =      -272.84188086
  -exchange      EXHF   =         0.00000000
  -V(xc)+E(xc)   XCENC  =        19.87195195
  PAW double counting   =       838.10443545     -824.19925600
  entropy T*S    EENTRO =        -0.00427949
  eigenvalues    EBANDS =      -215.81763082
  atomic energy  EATOM  =      1111.34994990
  Solvation  Ediel_sol  =         0.00000000
  free energy    TOTEN  =        -1.70721040 eV

  energy without entropy =       -1.70293091  energy(sigma->0) =       -1.70507065

--------------------------------------- Iteration      1(   2)  ---------------------------------------

 eigenvalue-minimisations  :  2160
 total energy-change (2. order) :-0.5913262E-07  (-0.4520773E-08)
 number of electron      17.9999928 magnetization
 augmentation part       -4.0398736 magnetization

 Free energy of the ion-electron system (eV)
  alpha Z        PSCENC =        30.73942618
  Ewald energy   TEWEN  =      -688.90992671
  -Hartree energ DENC   =      -272.84356359
  -exchange      EXHF   =         0.00000000
  -V(xc)+E(xc)   XCENC  =        19.87206111
  PAW double counting   =       838.10768182     -824.20263507
  entropy T*S    EENTRO =        -0.00427950
  eigenvalues    EBANDS =      -215.81592460
  atomic energy  EATOM  =      1111.34994990
  Solvation  Ediel_sol  =         0.00000000
  free energy    TOTEN  =        -1.70721046 eV

  energy without entropy =       -1.70293096  energy(sigma->0) =       -1.70507071

 average (electrostatic) potential at core
  the test charge radii are     1.1312
  (the norm of the test charge is              1.0000)
       1 -53.1228       2 -53.1228

 E-fermi :   0.5025     XC(G=0):  -5.2886     alpha+bet : -3.5458

 val. band max:        0.4359909544   @ k =   0.5000   0.3750   0.0000
 cond. band min:       0.5073509602   @ k =   0.5000   0.2500   0.2500
 fundamental gap:      0.0713600058
 Fermi energy:         0.5024871256

 k-point     1 :       0.0000    0.0000    0.0000
  band No.  band energies     occupation
      1     -23.3758      2.00000
      2     -23.3647      2.00000
      3     -10.2172      2.00000
      4     -10.2172      2.00000
      5     -10.2172      2.00000
      6     -10.1247      2.00000
      7     -10.1247      2.00000
      8     -10.1247      2.00000
      9      -1.1726      2.00000
     10       1.1510      0.00000
     11       1.1510      0.00000
     12       2.9705      0.00000
     13       2.9705      0.00000
     14       2.9705      0.00000
     15       3.4564      0.00000
     16       3.4564      0.00000
     17       3.4564      0.00000
     18       3.8174      0.00000
     19       3.8174      0.00000
     20       4.8613      0.00000
     21       4.8815      0.00000
     22       4.8815      0.00000
     23       4.8815      0.00000
     24       5.8793      0.00000
     25       5.8793      0.00000
     26       5.8793      0.00000
     27       8.7338      0.00000
     28       8.7925      0.00000
     29       8.7925      0.00000
     30       8.8793      0.00000
     31       8.8793      0.00000
     32       8.8793      0.00000
     33       9.2568      0.00000
     34       9.2568      0.00000
     35      11.0046      0.00000
     36      11.3287      0.00000
     37      11.3287      0.00000
     38      11.3287      0.00000
     39      12.4985      0.00000
     40      12.4985      0.00000
     41      12.4985      0.00000
     42      13.0561      0.00000
     43      13.4214      0.00000
     44      13.4214      0.00000
     45      13.4214      0.00000
     46      14.0533      0.00000
     47      14.0533      0.00000
     48      14.0533      0.00000

[...]

 k-point    35 :       0.5000    0.5000    0.5000
  band No.  band energies     occupation
      1     -23.3692      2.00000
      2     -23.3692      2.00000
      3     -10.1883      2.00000
      4     -10.1883      2.00000
      5     -10.1883      2.00000
      6     -10.1883      2.00000
      7     -10.1883      2.00000
      8     -10.1883      2.00000
      9       1.4739      0.00000
     10       1.4739      0.00000
     11       1.4739      0.00000
     12       1.4739      0.00000
     13       1.4739      0.00000
     14       1.4739      0.00000
     15       2.8264      0.00000
     16       2.8264      0.00000
     17       4.3362      0.00000
     18       4.3362      0.00000
     19       4.3362      0.00000
     20       4.3362      0.00000
     21       5.7703      0.00000
     22       5.7703      0.00000
     23       5.7703      0.00000
     24       5.7703      0.00000
     25       5.7703      0.00000
     26       5.7703      0.00000
     27       8.8070      0.00000
     28       8.8070      0.00000
     29       8.8070      0.00000
     30       8.8070      0.00000
     31       8.8070      0.00000
     32       8.8070      0.00000
     33       9.7048      0.00000
     34       9.7048      0.00000
     35       9.7048      0.00000
     36       9.7048      0.00000
     37       9.7048      0.00000
     38       9.7048      0.00000
     39      12.1600      0.00000
     40      12.1600      0.00000
     41      13.8430      0.00000
     42      13.8430      0.00000
     43      13.8430      0.00000
     44      13.8430      0.00000
     45      13.8430      0.00000
     46      13.8430      0.00000
     47      14.0863      0.00000
     48      14.0863      0.00000

 soft charge-density along one line, spin component           1
         0         1         2         3         4         5         6         7         8         9
 total charge-density along one line

------------------------ aborting loop because EDIFF is reached ----------------------------------------

  FORCE on cell =-STRESS in cart. coord.  units (eV):
  Direction    XX          YY          ZZ          XY          YZ          ZX
  Alpha Z    30.73943    30.73943    30.73943
  Ewald    -229.63662  -229.63662  -229.63662    -0.00000     0.00000     0.00000
  Hartree    90.94884    90.94884    90.94884    -0.00000    -0.00000    -0.00000
  E(xc)     -66.55605   -66.55605   -66.55605    -0.00000     0.00000    -0.00000
  Local     -60.19198   -60.19198   -60.19198     0.00000    -0.00000    -0.00000
  n-local    19.72055    19.48230    19.29762     0.15038     0.04240     0.05635
  augment   -27.55287   -27.55287   -27.55287     0.00000     0.00000     0.00000
  Kinetic   243.31069   242.27581   242.45917     0.48157     0.39962     0.29056
  Fock        0.00000     0.00000     0.00000     0.00000     0.00000     0.00000
  Total      -0.06722    -0.06722    -0.06722    -0.00000    -0.00000    -0.00000
  in kB      -0.46039    -0.46039    -0.46039    -0.00000    -0.00000    -0.00000

 VOLUME and BASIS-vectors are now :
  energy-cutoff  :      286.41
  volume of cell :      233.92
      direct lattice vectors                 reciprocal lattice vectors
     6.161530000  0.000000000  0.000000000     0.162297351 -0.000000000  0.000000000
     0.000000000  6.161530000  0.000000000     0.000000000  0.162297351  0.000000000
     0.000000000  0.000000000  6.161530000    -0.000000000 -0.000000000  0.162297351

  length of vectors
     6.161530000  6.161530000  6.161530000     0.162297351  0.162297351  0.162297351

 FORCES acting on ions
    electron-ion (+dipol)            ewald-force                    non-local-force                 convergence-correction
   0.939E-14 0.258E-14 0.698E-14   -.131E-14 -.213E-15 0.405E-16   0.506E-26 -.210E-25 0.104E-24   -.629E-14 -.243E-14 -.525E-14
   0.208E-13 0.791E-12 0.995E-12   0.151E-14 -.122E-15 0.361E-15   -.386E-25 -.176E-25 -.293E-25   -.130E-13 -.259E-14 -.719E-14
   0.302E-13 0.793E-12 0.100E-11   0.201E-15 -.335E-15 0.402E-15   -.336E-25 -.386E-25 0.750E-25   -.193E-13 -.502E-14 -.124E-13

 POSITION                                       TOTAL-FORCE (eV/Angst)
      0.00000      0.00000      0.00000        -0.000000     -0.000000     -0.000000
      3.08077      3.08076      3.08077         0.000000      0.000000      0.000000
    total drift:                                0.000000      0.000000      0.000000

  FREE ENERGIE OF THE ION-ELECTRON SYSTEM (eV)
  free  energy   TOTEN  =        -1.70721046 eV

  energy  without entropy=       -1.70293096  energy(sigma->0) =       -1.70507071

 writing wavefunctions