 vasp.6.4.3 19Mar24 (build Jun 26 2024 13:02:28) complex

 executed on             LinuxIFC date 2025.08.08  18:15:40

 INCAR:
   ENCUT = 381.20550000000003
   IBRION = -1
   ISMEAR = 0
   ISYM = 2
   LCHARG = True
   LWAVE = True
   SIGMA = 0.05
   SYSTEM = Nb

 POTCAR:  PAW_PBE Nb_sv 25May2007
|           W    W    AA    RRRRR   N    N  II  N    N   GGGG   !!!           |
|           W    W   A  A   R    R  NN   N  II  NN   N  G    G  !!!           |
|           W    W  A    A  R    R  N N  N  II  N N  N  G       !!!           |
|           W WW W  AAAAAA  RRRRR   N  N N  II  N  N N  G  GGG   !            |
|           WW  WW  A    A  R   R   N   NN  II  N   NN  G    G                |
|           W    W  A    A  R    R  N    N  II  N    N   GGGG   !!!           |
|     For optimal performance we recommend to set                             |
|       NCORE = 2 up to number-of-cores-per-socket                            |
|     This setting can greatly improve the performance of VASP for DFT.       |
|     The default, NCORE=1 might be grossly inefficient on modern             |
|     multi-core architectures or massively parallel machines. Do your        |
|     Unfortunately you need to use the default for GW and RPA                |
|     calculations (for HF NCORE is supported but not extensively tested      |
|     yet).                                                                   |

 POTCAR:  PAW_PBE Nb_sv 25May2007
   VRHFIN =Nb: 4p5s4d

   TITEL  = PAW_PBE Nb_sv 25May2007
   POMASS =   92.910; ZVAL   =   13.000    mass and valenz
   ENMAX  =  293.235; ENMIN  =  219.927 eV

PAW_PBE Nb_sv 25May2007                 :

 POSCAR: Nb2
  positions in direct lattice

 exchange-correlation table for PE
   RHO(1)=    0.500       N(1)  =     2000
   RHO(2)=  100.500       N(2)  =     4000

 ion  position               nearest neighbor table
   1  0.000  0.000  0.000-   2 2.88   2 2.88   2 2.88   2 2.88   2 2.88   2 2.88   2 2.88   2 2.88

   2  0.500  0.500  0.500-   1 2.88   1 2.88   1 2.88   1 2.88   1 2.88   1 2.88   1 2.88   1 2.88

  LATTYP: Found a simple cubic cell.
 ALAT       =     3.3223900000

  Lattice vectors:

 A1 = (   3.3223900000,   0.0000000000,   0.0000000000)
 A2 = (   0.0000000000,   3.3223900000,   0.0000000000)
 A3 = (   0.0000000000,   0.0000000000,   3.3223900000)

Analysis of symmetry for initial positions (statically):
 Subroutine PRICEL returns following result:

  LATTYP: Found a body centered cubic cell.
 ALAT       =     3.3223900000

[...]

   2 primitive cells build up your supercell.

 Routine SETGRP: Setting up the symmetry group for a
 simple cubic supercell.

 Subroutine GETGRP returns: Found 48 space group operations
 (whereof 48 operations were pure point group operations)
 out of a pool of 48 trial point group operations.

The static configuration has the point symmetry O_h .

Analysis of symmetry for dynamics (positions and initial velocities):
 Subroutine PRICEL returns following result:

  LATTYP: Found a body centered cubic cell.
 ALAT       =     3.3223900000

  Lattice vectors:

 A1 = (   1.6611950000,   1.6611950000,  -1.6611950000)
 A2 = (  -1.6611950000,   1.6611950000,   1.6611950000)
 A3 = (   1.6611950000,  -1.6611950000,   1.6611950000)

   2 primitive cells build up your supercell.

 Routine SETGRP: Setting up the symmetry group for a
 simple cubic supercell.

 Subroutine GETGRP returns: Found 48 space group operations
 (whereof 48 operations were pure point group operations)
 out of a pool of 48 trial point group operations.

The dynamic configuration has the point symmetry O_h .

 Subroutine INISYM returns: Found 48 space group operations
 (whereof 48 operations are pure point group operations),
 and found     2 'primitive' translations

                                     Primitive cell

  volume of cell :      18.3367

  direct lattice vectors                    reciprocal lattice vectors
     1.661195000  1.661195000 -1.661195000     0.300988144  0.300988144  0.000000000
    -1.661195000  1.661195000  1.661195000    -0.000000000  0.300988144  0.300988144
     1.661195000 -1.661195000  1.661195000     0.300988144 -0.000000000  0.300988144

  length of vectors
     2.877274141  2.877274141  2.877274141     0.425661515  0.425661515  0.425661515

  position of ions in fractional coordinates (direct lattice)
     0.000000000  0.000000000  0.000000000

  ion indices of the primitive-cell ions
   primitive index   ion index
                 1           1

 KPOINTS: Automatic kpoint scheme

Automatic generation of k-mesh.
 Grid dimensions read from file:
 generate k-points for:   12   12   12

 Generating k-lattice:

  Cartesian coordinates                     Fractional coordinates (reciprocal lattice)
     0.025082345 -0.000000000  0.000000000     0.083333333  0.000000000  0.000000000
     0.000000000  0.025082345  0.000000000     0.000000000  0.083333333  0.000000000
    -0.000000000 -0.000000000  0.025082345     0.000000000 -0.000000000  0.083333333

  Length of vectors
     0.025082345  0.025082345  0.025082345

  Shift w.r.t. Gamma in fractional coordinates (k-lattice)
     0.000000000  0.000000000  0.000000000

 Subroutine IBZKPT returns following result:

 Found     84 irreducible k-points:

 Following reciprocal coordinates:
            Coordinates               Weight
  0.000000  0.000000  0.000000      1.000000
  0.083333  0.000000  0.000000      6.000000
  0.166667 -0.000000  0.000000      6.000000
  0.250000  0.000000  0.000000      6.000000
  0.333333  0.000000  0.000000      6.000000
  0.416667  0.000000  0.000000      6.000000
  0.500000  0.000000  0.000000      3.000000
  0.083333  0.083333  0.000000     12.000000
  0.166667  0.083333  0.000000     24.000000
  0.250000  0.083333  0.000000     24.000000
  0.333333  0.083333  0.000000     24.000000
  0.416667  0.083333  0.000000     24.000000
  0.500000  0.083333  0.000000     12.000000
  0.166667  0.166667  0.000000     12.000000
  0.250000  0.166667  0.000000     24.000000
  0.333333  0.166667  0.000000     24.000000
  0.416667  0.166667  0.000000     24.000000
  0.500000  0.166667  0.000000     12.000000
  0.250000  0.250000  0.000000     12.000000
  0.333333  0.250000  0.000000     24.000000
  0.416667  0.250000  0.000000     24.000000
  0.500000  0.250000  0.000000     12.000000
  0.333333  0.333333  0.000000     12.000000
  0.416667  0.333333  0.000000     24.000000
  0.500000  0.333333  0.000000     12.000000
  0.416667  0.416667  0.000000     12.000000
  0.500000  0.416667  0.000000     12.000000
  0.500000  0.500000  0.000000      3.000000
  0.083333  0.083333  0.083333      8.000000
  0.166667  0.083333  0.083333     24.000000
  0.250000  0.083333  0.083333     24.000000
  0.333333  0.083333  0.083333     24.000000
  0.416667  0.083333  0.083333     24.000000
  0.500000  0.083333  0.083333     12.000000
  0.166667  0.166667  0.083333     24.000000
  0.250000  0.166667  0.083333     48.000000
  0.333333  0.166667  0.083333     48.000000
  0.416667  0.166667  0.083333     48.000000
  0.500000  0.166667  0.083333     24.000000
  0.250000  0.250000  0.083333     24.000000
  0.333333  0.250000  0.083333     48.000000
  0.416667  0.250000  0.083333     48.000000
  0.500000  0.250000  0.083333     24.000000
  0.333333  0.333333  0.083333     24.000000
  0.416667  0.333333  0.083333     48.000000
  0.500000  0.333333  0.083333     24.000000
  0.416667  0.416667  0.083333     24.000000
  0.500000  0.416667  0.083333     24.000000
  0.500000  0.500000  0.083333      6.000000
  0.166667  0.166667  0.166667      8.000000
  0.250000  0.166667  0.166667     24.000000
  0.333333  0.166667  0.166667     24.000000
  0.416667  0.166667  0.166667     24.000000
  0.500000  0.166667  0.166667     12.000000
  0.250000  0.250000  0.166667     24.000000
  0.333333  0.250000  0.166667     48.000000
  0.416667  0.250000  0.166667     48.000000
  0.500000  0.250000  0.166667     24.000000
  0.333333  0.333333  0.166667     24.000000
  0.416667  0.333333  0.166667     48.000000
[...]
  0.416667  0.333333  0.250000     48.000000
  0.500000  0.333333  0.250000     24.000000
  0.416667  0.416667  0.250000     24.000000
  0.500000  0.416667  0.250000     24.000000
  0.500000  0.500000  0.250000      6.000000
  0.333333  0.333333  0.333333      8.000000
  0.416667  0.333333  0.333333     24.000000
  0.500000  0.333333  0.333333     12.000000
  0.416667  0.416667  0.333333     24.000000
  0.500000  0.416667  0.333333     24.000000
  0.500000  0.500000  0.333333      6.000000
  0.416667  0.416667  0.416667      8.000000
  0.500000  0.416667  0.416667     12.000000
  0.500000  0.500000  0.416667      6.000000
  0.500000  0.500000  0.500000      1.000000

 Following cartesian coordinates:
            Coordinates               Weight
  0.000000  0.000000  0.000000      1.000000
  0.025082 -0.000000  0.000000      6.000000
  0.050165 -0.000000  0.000000      6.000000
  0.075247 -0.000000  0.000000      6.000000
  0.100329 -0.000000  0.000000      6.000000
  0.125412 -0.000000  0.000000      6.000000
  0.150494 -0.000000  0.000000      3.000000
  0.025082  0.025082  0.000000     12.000000
  0.050165  0.025082  0.000000     24.000000
  0.075247  0.025082  0.000000     24.000000
  0.100329  0.025082  0.000000     24.000000
  0.125412  0.025082  0.000000     24.000000
  0.150494  0.025082  0.000000     12.000000
  0.050165  0.050165  0.000000     12.000000
  0.075247  0.050165  0.000000     24.000000
  0.100329  0.050165  0.000000     24.000000
  0.125412  0.050165  0.000000     24.000000
  0.150494  0.050165  0.000000     12.000000
  0.075247  0.075247  0.000000     12.000000
  0.100329  0.075247  0.000000     24.000000
  0.125412  0.075247  0.000000     24.000000
  0.150494  0.075247  0.000000     12.000000
  0.100329  0.100329  0.000000     12.000000
  0.125412  0.100329  0.000000     24.000000
  0.150494  0.100329  0.000000     12.000000
  0.125412  0.125412  0.000000     12.000000
  0.150494  0.125412  0.000000     12.000000
  0.150494  0.150494  0.000000      3.000000
  0.025082  0.025082  0.025082      8.000000
  0.050165  0.025082  0.025082     24.000000
  0.075247  0.025082  0.025082     24.000000
  0.100329  0.025082  0.025082     24.000000
  0.125412  0.025082  0.025082     24.000000
  0.150494  0.025082  0.025082     12.000000
  0.050165  0.050165  0.025082     24.000000
  0.075247  0.050165  0.025082     48.000000
  0.100329  0.050165  0.025082     48.000000
  0.125412  0.050165  0.025082     48.000000
  0.150494  0.050165  0.025082     24.000000
  0.075247  0.075247  0.025082     24.000000
  0.100329  0.075247  0.025082     48.000000
  0.125412  0.075247  0.025082     48.000000
  0.150494  0.075247  0.025082     24.000000
  0.100329  0.100329  0.025082     24.000000
  0.125412  0.100329  0.025082     48.000000
  0.150494  0.100329  0.025082     24.000000
  0.125412  0.125412  0.025082     24.000000
  0.150494  0.125412  0.025082     24.000000
  0.150494  0.150494  0.025082      6.000000
  0.050165  0.050165  0.050165      8.000000
  0.075247  0.050165  0.050165     24.000000
  0.100329  0.050165  0.050165     24.000000
  0.125412  0.050165  0.050165     24.000000
[...]
   0.16666667  0.16666667  0.08333333       0.014
   0.25000000  0.16666667  0.08333333       0.028
   0.33333333  0.16666667  0.08333333       0.028
   0.41666667  0.16666667  0.08333333       0.028
   0.50000000  0.16666667  0.08333333       0.014
   0.25000000  0.25000000  0.08333333       0.014
   0.33333333  0.25000000  0.08333333       0.028
   0.41666667  0.25000000  0.08333333       0.028
   0.50000000  0.25000000  0.08333333       0.014
   0.33333333  0.33333333  0.08333333       0.014
   0.41666667  0.33333333  0.08333333       0.028
   0.50000000  0.33333333  0.08333333       0.014
   0.41666667  0.41666667  0.08333333       0.014
   0.50000000  0.41666667  0.08333333       0.014
   0.50000000  0.50000000  0.08333333       0.003
   0.16666667  0.16666667  0.16666667       0.005
   0.25000000  0.16666667  0.16666667       0.014
   0.33333333  0.16666667  0.16666667       0.014
   0.41666667  0.16666667  0.16666667       0.014
   0.50000000  0.16666667  0.16666667       0.007
   0.25000000  0.25000000  0.16666667       0.014
   0.33333333  0.25000000  0.16666667       0.028
   0.41666667  0.25000000  0.16666667       0.028
   0.50000000  0.25000000  0.16666667       0.014
   0.33333333  0.33333333  0.16666667       0.014
   0.41666667  0.33333333  0.16666667       0.028
[...]
   0.41666667  0.33333333  0.25000000       0.028
   0.50000000  0.33333333  0.25000000       0.014
   0.41666667  0.41666667  0.25000000       0.014
   0.50000000  0.41666667  0.25000000       0.014
   0.50000000  0.50000000  0.25000000       0.003
   0.33333333  0.33333333  0.33333333       0.005
   0.41666667  0.33333333  0.33333333       0.014
   0.50000000  0.33333333  0.33333333       0.007
   0.41666667  0.41666667  0.33333333       0.014
   0.50000000  0.41666667  0.33333333       0.014
   0.50000000  0.50000000  0.33333333       0.003
   0.41666667  0.41666667  0.41666667       0.005
   0.50000000  0.41666667  0.41666667       0.007
   0.50000000  0.50000000  0.41666667       0.003
   0.50000000  0.50000000  0.50000000       0.001

 position of ions in fractional coordinates (direct lattice)
   0.00000000  0.00000000  0.00000000
   0.50000000  0.50000000  0.50000000

 position of ions in cartesian coordinates  (Angst):
   0.00000000  0.00000000  0.00000000
   1.66119500  1.66119500  1.66119500

 k-point     1 :   0.0000 0.0000 0.0000  plane waves:     619
 k-point     2 :   0.0833 0.0000 0.0000  plane waves:     619
 k-point     3 :   0.1667-0.0000 0.0000  plane waves:     623
 k-point     4 :   0.2500 0.0000 0.0000  plane waves:     627
 k-point     5 :   0.3333 0.0000 0.0000  plane waves:     630
 k-point     6 :   0.4167 0.0000 0.0000  plane waves:     618
 k-point     7 :   0.5000 0.0000 0.0000  plane waves:     610
 k-point     8 :   0.0833 0.0833 0.0000  plane waves:     619
 k-point     9 :   0.1667 0.0833 0.0000  plane waves:     628
 k-point    10 :   0.2500 0.0833 0.0000  plane waves:     630
 k-point    11 :   0.3333 0.0833 0.0000  plane waves:     628
 k-point    12 :   0.4167 0.0833 0.0000  plane waves:     618
 k-point    13 :   0.5000 0.0833 0.0000  plane waves:     618
 k-point    14 :   0.1667 0.1667 0.0000  plane waves:     625
 k-point    15 :   0.2500 0.1667 0.0000  plane waves:     628
 k-point    16 :   0.3333 0.1667 0.0000  plane waves:     624
 k-point    17 :   0.4167 0.1667 0.0000  plane waves:     615
 k-point    18 :   0.5000 0.1667 0.0000  plane waves:     622
 k-point    19 :   0.2500 0.2500 0.0000  plane waves:     613
 k-point    20 :   0.3333 0.2500 0.0000  plane waves:     618
 k-point    21 :   0.4167 0.2500 0.0000  plane waves:     615
 k-point    22 :   0.5000 0.2500 0.0000  plane waves:     616
 k-point    23 :   0.3333 0.3333 0.0000  plane waves:     618
 k-point    24 :   0.4167 0.3333 0.0000  plane waves:     620
 k-point    25 :   0.5000 0.3333 0.0000  plane waves:     610
 k-point    26 :   0.4167 0.4167 0.0000  plane waves:     624
 k-point    27 :   0.5000 0.4167 0.0000  plane waves:     624
 k-point    28 :   0.5000 0.5000 0.0000  plane waves:     624
 k-point    29 :   0.0833 0.0833 0.0833  plane waves:     627
 k-point    30 :   0.1667 0.0833 0.0833  plane waves:     628
 k-point    31 :   0.2500 0.0833 0.0833  plane waves:     628
 k-point    32 :   0.3333 0.0833 0.0833  plane waves:     626
 k-point    33 :   0.4167 0.0833 0.0833  plane waves:     619
 k-point    34 :   0.5000 0.0833 0.0833  plane waves:     616
 k-point    35 :   0.1667 0.1667 0.0833  plane waves:     624
 k-point    36 :   0.2500 0.1667 0.0833  plane waves:     624
 k-point    37 :   0.3333 0.1667 0.0833  plane waves:     621
 k-point    38 :   0.4167 0.1667 0.0833  plane waves:     620
 k-point    39 :   0.5000 0.1667 0.0833  plane waves:     622
 k-point    40 :   0.2500 0.2500 0.0833  plane waves:     624
 k-point    41 :   0.3333 0.2500 0.0833  plane waves:     617
 k-point    42 :   0.4167 0.2500 0.0833  plane waves:     618
 k-point    43 :   0.5000 0.2500 0.0833  plane waves:     614
 k-point    44 :   0.3333 0.3333 0.0833  plane waves:     616
 k-point    45 :   0.4167 0.3333 0.0833  plane waves:     616
 k-point    46 :   0.5000 0.3333 0.0833  plane waves:     612
 k-point    47 :   0.4167 0.4167 0.0833  plane waves:     613
 k-point    48 :   0.5000 0.4167 0.0833  plane waves:     616
 k-point    49 :   0.5000 0.5000 0.0833  plane waves:     620
 k-point    50 :   0.1667 0.1667 0.1667  plane waves:     609
 k-point    51 :   0.2500 0.1667 0.1667  plane waves:     622
 k-point    52 :   0.3333 0.1667 0.1667  plane waves:     618
 k-point    53 :   0.4167 0.1667 0.1667  plane waves:     623
 k-point    54 :   0.5000 0.1667 0.1667  plane waves:     616
 k-point    55 :   0.2500 0.2500 0.1667  plane waves:     612
 k-point    56 :   0.3333 0.2500 0.1667  plane waves:     614
 k-point    57 :   0.4167 0.2500 0.1667  plane waves:     617
 k-point    58 :   0.5000 0.2500 0.1667  plane waves:     616
 k-point    59 :   0.3333 0.3333 0.1667  plane waves:     617
 k-point    60 :   0.4167 0.3333 0.1667  plane waves:     614
[...]
 k-point    70 :   0.4167 0.3333 0.2500  plane waves:     621
 k-point    71 :   0.5000 0.3333 0.2500  plane waves:     620
 k-point    72 :   0.4167 0.4167 0.2500  plane waves:     620
 k-point    73 :   0.5000 0.4167 0.2500  plane waves:     618
 k-point    74 :   0.5000 0.5000 0.2500  plane waves:     616
 k-point    75 :   0.3333 0.3333 0.3333  plane waves:     627
 k-point    76 :   0.4167 0.3333 0.3333  plane waves:     620
 k-point    77 :   0.5000 0.3333 0.3333  plane waves:     622
 k-point    78 :   0.4167 0.4167 0.3333  plane waves:     625
 k-point    79 :   0.5000 0.4167 0.3333  plane waves:     628
 k-point    80 :   0.5000 0.5000 0.3333  plane waves:     632
 k-point    81 :   0.4167 0.4167 0.4167  plane waves:     627
 k-point    82 :   0.5000 0.4167 0.4167  plane waves:     632
 k-point    83 :   0.5000 0.5000 0.4167  plane waves:     624
 k-point    84 :   0.5000 0.5000 0.5000  plane waves:     624

 maximum and minimum number of plane-waves per node :       632      609

 maximum number of plane-waves:       632
 maximum index in each direction:
   IXMAX=    5   IYMAX=    5   IZMAX=    5
   IXMIN=   -5   IYMIN=   -5   IZMIN=   -5

 serial   3D FFT for wavefunctions
 parallel 3D FFT for charge:
    minimum data exchange during FFTs selected (reduces bandwidth)

 Broyden mixing: mesh for mixing (old mesh)
   NGX = 11   NGY = 11   NGZ = 11
  (NGX  = 32   NGY  = 32   NGZ  = 32)
  gives a total of   1331 points

 charge density for first step will be calculated from the start-wavefunctions

 Maximum index for augmentation-charges          341 (set IRDMAX)

 initial charge from wavefunction
 First call to EWALD:  gamma=   0.533
 Maximum number of real-space cells 3x 3x 3
 Maximum number of reciprocal cells 3x 3x 3

--------------------------------------- Ionic step        1  -------------------------------------------

--------------------------------------- Iteration      1(   1)  ---------------------------------------

 eigenvalue-minimisations  :  5568
 total energy-change (2. order) :-0.2042348E+02  (-0.2887001E-05)
 number of electron      26.0000032 magnetization
 augmentation part        2.4492414 magnetization

 Broyden mixing:
  rms(total) = 0.15438E-02    rms(broyden)= 0.15438E-02
  rms(prec ) = 0.18330E-02
  weight for this iteration     100.00

 Free energy of the ion-electron system (eV)
  alpha Z        PSCENC =       162.57549218
  Ewald energy   TEWEN  =     -2665.64360999
  -Hartree energ DENC   =      -470.81090307
  -exchange      EXHF   =         0.00000000
  -V(xc)+E(xc)   XCENC  =       112.08734823
  PAW double counting   =      2972.83087077    -2928.78247643
  entropy T*S    EENTRO =        -0.00335773
  eigenvalues    EBANDS =      -313.00612571
  atomic energy  EATOM  =      3110.32928613
  Solvation  Ediel_sol  =         0.00000000
  free energy    TOTEN  =       -20.42347562 eV

  energy without entropy =      -20.42011789  energy(sigma->0) =      -20.42179676

--------------------------------------- Iteration      1(   2)  ---------------------------------------

 eigenvalue-minimisations  :  4656
 total energy-change (2. order) :-0.3508326E-06  (-0.1864901E-06)
 number of electron      26.0000032 magnetization
 augmentation part        2.4492414 magnetization

 Free energy of the ion-electron system (eV)
  alpha Z        PSCENC =       162.57549218
  Ewald energy   TEWEN  =     -2665.64360999
  -Hartree energ DENC   =      -470.82665918
  -exchange      EXHF   =         0.00000000
  -V(xc)+E(xc)   XCENC  =       112.08815394
  PAW double counting   =      2972.21407190    -2928.16344697
  entropy T*S    EENTRO =        -0.00335894
  eigenvalues    EBANDS =      -312.99340504
  atomic energy  EATOM  =      3110.32928613
  Solvation  Ediel_sol  =         0.00000000
  free energy    TOTEN  =       -20.42347597 eV

  energy without entropy =      -20.42011703  energy(sigma->0) =      -20.42179650

 average (electrostatic) potential at core
  the test charge radii are     1.0703
  (the norm of the test charge is              1.0000)
       1 -77.0618       2 -77.0618

 E-fermi :  10.9433     XC(G=0): -12.4069     alpha+bet :-18.9171

 val. band max:       10.9407713338   @ k =   0.2500   0.0833   0.0000
 cond. band min:      10.9692500675   @ k =   0.4167   0.4167   0.2500
 fundamental gap:      0.0284787337
 Fermi energy:        10.9432732410

 k-point     1 :       0.0000    0.0000    0.0000
  band No.  band energies     occupation
      1     -43.4456      2.00000
      2     -43.0564      2.00000
      3     -19.6668      2.00000
      4     -19.6668      2.00000
      5     -19.6668      2.00000
      6     -18.7878      2.00000
      7     -18.7878      2.00000
      8     -18.7878      2.00000
      9       5.0495      2.00000
     10       7.3173      2.00000
     11       7.3173      2.00000
     12      11.3101      0.00000
     13      11.3101      0.00000
     14      11.3101      0.00000
     15      14.1579      0.00000
     16      14.1579      0.00000
     17      16.4238      0.00000
     18      16.4238      0.00000
     19      16.4238      0.00000
     20      19.8604      0.00000
     21      19.8604      0.00000
     22      19.8604      0.00000
     23      25.1049      0.00000
     24      25.1049      0.00000
     25      25.1049      0.00000
     26      29.0757      0.00000
     27      31.2153      0.00000
     28      31.2153      0.00000
     29      32.9122      0.00000
     30      35.6907      0.00000
     31      35.6907      0.00000
     32      38.5957      0.00000
     33      38.5957      0.00000
     34      38.5957      0.00000
     35      44.5029      0.00000
     36      44.5029      0.00000
     37      44.5029      0.00000
     38      44.8276      0.00000
     39      44.8276      0.00000
     40      44.8276      0.00000
     41      47.4125      0.00000
     42      49.8892      0.00000
     43      49.8892      0.00000
     44      49.8892      0.00000
     45      51.8706      0.00000
     46      51.8706      0.00000
     47      51.8706      0.00000
     48      53.3724      0.00000

[...]

 k-point    84 :       0.5000    0.5000    0.5000
  band No.  band energies     occupation
      1     -43.1990      2.00000
      2     -43.1990      2.00000
      3     -19.4379      2.00000
      4     -19.4379      2.00000
      5     -19.4379      2.00000
      6     -19.4379      2.00000
      7     -19.4379      2.00000
      8     -19.4379      2.00000
      9       9.8551      2.00000
     10       9.8551      2.00000
     11       9.8551      2.00000
     12       9.8551      2.00000
     13       9.8551      2.00000
     14       9.8551      2.00000
     15      14.9755      0.00000
     16      14.9755      0.00000
     17      14.9755      0.00000
     18      14.9755      0.00000
     19      20.1928      0.00000
     20      20.1928      0.00000
     21      22.6646      0.00000
     22      22.6646      0.00000
     23      22.6646      0.00000
     24      22.6646      0.00000
     25      22.6646      0.00000
     26      22.6646      0.00000
     27      34.9542      0.00000
     28      34.9542      0.00000
     29      34.9542      0.00000
     30      34.9542      0.00000
     31      34.9542      0.00000
     32      34.9542      0.00000
     33      37.3187      0.00000
     34      37.3187      0.00000
     35      37.3187      0.00000
     36      37.3187      0.00000
     37      37.3187      0.00000
     38      37.3187      0.00000
     39      47.9082      0.00000
     40      47.9082      0.00000
     41      51.8292      0.00000
     42      51.8292      0.00000
     43      51.8292      0.00000
     44      51.8292      0.00000
     45      54.1340      0.00000
     46      54.1340      0.00000
     47      54.1340      0.00000
     48      54.1340      0.00000

 soft charge-density along one line, spin component           1
         0         1         2         3         4         5         6         7         8         9
 total charge-density along one line

------------------------ aborting loop because EDIFF is reached ----------------------------------------

  FORCE on cell =-STRESS in cart. coord.  units (eV):
  Direction    XX          YY          ZZ          XY          YZ          ZX
  Alpha Z   162.57549   162.57549   162.57549
  Ewald    -888.54780  -888.54780  -888.54780    -0.00000    -0.00000    -0.00000
  Hartree   156.94678   156.94678   156.94678    -0.00000    -0.00000    -0.00000
  E(xc)    -118.38343  -118.38343  -118.38343     0.00000     0.00000     0.00000
  Local     168.15478   168.15478   168.15478     0.00000    -0.00000    -0.00000
  n-local    -4.56644   -26.92591   -41.18137     1.26308    -0.39258    -0.33400
  augment    36.81303    36.81303    36.81303    -0.00000    -0.00000     0.00000
  Kinetic   470.42515   505.04962   542.49511     2.15664    -2.68550     1.21568
  Fock        0.00000     0.00000     0.00000     0.00000     0.00000     0.00000
  Total      -0.67576    -0.67576    -0.67576    -0.00000    -0.00000    -0.00000
  in kB     -29.52245   -29.52245   -29.52245    -0.00000    -0.00000    -0.00000

 VOLUME and BASIS-vectors are now :
  energy-cutoff  :      381.21
  volume of cell :       36.67
      direct lattice vectors                 reciprocal lattice vectors
     3.322390000  0.000000000  0.000000000     0.300988144 -0.000000000  0.000000000
     0.000000000  3.322390000  0.000000000     0.000000000  0.300988144  0.000000000
     0.000000000  0.000000000  3.322390000    -0.000000000 -0.000000000  0.300988144

  length of vectors
     3.322390000  3.322390000  3.322390000     0.300988144  0.300988144  0.300988144

 FORCES acting on ions
    electron-ion (+dipol)            ewald-force                    non-local-force                 convergence-correction
   -.314E-14 0.135E-15 -.153E-15   0.196E-14 0.364E-14 -.134E-14   -.107E-24 0.150E-24 -.508E-25   -.187E-13 -.581E-14 -.831E-14
   0.145E-12 0.187E-11 0.403E-12   -.671E-16 -.108E-15 0.390E-14   -.939E-25 -.649E-25 0.123E-24   -.218E-13 0.420E-14 -.185E-14
   0.142E-12 0.187E-11 0.403E-12   0.189E-14 0.353E-14 0.256E-14   -.200E-24 0.849E-25 0.717E-25   -.405E-13 -.161E-14 -.102E-13

 POSITION                                       TOTAL-FORCE (eV/Angst)
      0.00000      0.00000      0.00000        -0.000000      0.000000      0.000000
      1.66120      1.66119      1.66120         0.000000     -0.000000     -0.000000
    total drift:                                0.000000      0.000000      0.000000

  FREE ENERGIE OF THE ION-ELECTRON SYSTEM (eV)
  free  energy   TOTEN  =       -20.42347597 eV

  energy  without entropy=      -20.42011703  energy(sigma->0) =      -20.42179650

 writing wavefunctions