 vasp.6.4.3 19Mar24 (build Jun 26 2024 13:02:28) complex

 executed on             LinuxIFC date 2025.08.08  19:09:22

 INCAR:
   ENCUT = 367.4983
   IBRION = -1
   ISMEAR = 0
   ISYM = 2
   LCHARG = True
   LWAVE = True
   SIGMA = 0.05
   SYSTEM = Ga

 POTCAR:  PAW_PBE Ga_d 06Jul2010
|           W    W    AA    RRRRR   N    N  II  N    N   GGGG   !!!           |
|           W    W   A  A   R    R  NN   N  II  NN   N  G    G  !!!           |
|           W    W  A    A  R    R  N N  N  II  N N  N  G       !!!           |
|           W WW W  AAAAAA  RRRRR   N  N N  II  N  N N  G  GGG   !            |
|           WW  WW  A    A  R   R   N   NN  II  N   NN  G    G                |
|           W    W  A    A  R    R  N    N  II  N    N   GGGG   !!!           |
|     For optimal performance we recommend to set                             |
|       NCORE = 2 up to number-of-cores-per-socket                            |
|     This setting can greatly improve the performance of VASP for DFT.       |
|     The default, NCORE=1 might be grossly inefficient on modern             |
|     multi-core architectures or massively parallel machines. Do your        |
|     Unfortunately you need to use the default for GW and RPA                |
|     calculations (for HF NCORE is supported but not extensively tested      |
|     yet).                                                                   |

 POTCAR:  PAW_PBE Ga_d 06Jul2010
   VRHFIN =Ga: s2p1

   TITEL  = PAW_PBE Ga_d 06Jul2010
   POMASS =   69.723; ZVAL   =   13.000    mass and valenz
   ENMAX  =  282.691; ENMIN  =  212.018 eV

PAW_PBE Ga_d 06Jul2010                  :

 POSCAR: Ga8
  positions in direct lattice

 exchange-correlation table for PE
   RHO(1)=    0.500       N(1)  =     2000
   RHO(2)=  100.500       N(2)  =     4000

 ion  position               nearest neighbor table
   1  0.000  0.156  0.081-   2 2.54   3 2.72   3 2.72   8 2.76   8 2.76   6 2.81   6 2.81
   2  0.000  0.844  0.919-   1 2.54   4 2.72   4 2.72   7 2.76   7 2.76   5 2.81   5 2.81
   3  0.000  0.344  0.581-   4 2.54   1 2.72   1 2.72   6 2.76   6 2.76   8 2.81   8 2.81
   4  0.000  0.656  0.419-   3 2.54   2 2.72   2 2.72   5 2.76   5 2.76   7 2.81   7 2.81
   5  0.500  0.656  0.081-   6 2.54   7 2.72   7 2.72   4 2.76   4 2.76   2 2.81   2 2.81
   6  0.500  0.344  0.919-   5 2.54   8 2.72   8 2.72   3 2.76   3 2.76   1 2.81   1 2.81
   7  0.500  0.844  0.581-   8 2.54   5 2.72   5 2.72   2 2.76   2 2.76   4 2.81   4 2.81
   8  0.500  0.156  0.419-   7 2.54   6 2.72   6 2.72   1 2.76   1 2.76   3 2.81   3 2.81

  LATTYP: Found a simple orthorhombic cell.
 ALAT       =     4.5668900000
 B/A-ratio  =     1.0072018376
 C/A-ratio  =     1.6977198925

  Lattice vectors:

 A1 = (  -4.5668900000,   0.0000000000,   0.0000000000)
 A2 = (   0.0000000000,   0.0000000000,   4.5997800000)
 A3 = (   0.0000000000,   7.7533000000,   0.0000000000)

Analysis of symmetry for initial positions (statically):
 Subroutine PRICEL returns following result:

  LATTYP: Found a base centered orthorhombic cell.
 ALAT       =     4.5668900000
 B/A-ratio  =     1.6977198925
 C/A-ratio  =     1.0072018376

[...]

   2 primitive cells build up your supercell.

 Routine SETGRP: Setting up the symmetry group for a
 simple orthorhombic supercell.

 Subroutine GETGRP returns: Found  8 space group operations
 (whereof  4 operations were pure point group operations)
 out of a pool of  8 trial point group operations.

The static configuration has the point symmetry C_2h.
 The point group associated with its full space group is D_2h.

Analysis of symmetry for dynamics (positions and initial velocities):
 Subroutine PRICEL returns following result:

  LATTYP: Found a base centered orthorhombic cell.
 ALAT       =     4.5668900000
 B/A-ratio  =     1.6977198925
 C/A-ratio  =     1.0072018376

  Lattice vectors:

 A1 = (   2.2834450000,  -3.8766500000,   0.0000000000)
 A2 = (   2.2834450000,   3.8766500000,   0.0000000000)
 A3 = (   0.0000000000,   0.0000000000,   4.5997800000)

   2 primitive cells build up your supercell.

 Routine SETGRP: Setting up the symmetry group for a
 simple orthorhombic supercell.

 Subroutine GETGRP returns: Found  8 space group operations
 (whereof  4 operations were pure point group operations)
 out of a pool of  8 trial point group operations.

The dynamic configuration has the point symmetry C_2h.
 The point group associated with its full space group is D_2h.

 Subroutine INISYM returns: Found  8 space group operations
 (whereof  4 operations are pure point group operations),
 and found     2 'primitive' translations

                                     Primitive cell

  volume of cell :      81.4356

  direct lattice vectors                    reciprocal lattice vectors
     2.283445000 -3.876650000  0.000000000     0.218967394 -0.128977339  0.000000000
     2.283445000  3.876650000  0.000000000     0.218967394  0.128977339  0.000000000
     0.000000000  0.000000000  4.599780000    -0.000000000 -0.000000000  0.217401702

  length of vectors
     4.499170623  4.499170623  4.599780000     0.254129639  0.254129639  0.217401702

  position of ions in fractional coordinates (direct lattice)
     0.843580000  0.156420000  0.081200000
     0.156420000  0.843580000  0.918800000
     0.656420000  0.343580000  0.581200000
     0.343580000  0.656420000  0.418800000

  ion indices of the primitive-cell ions
   primitive index   ion index
                 1           1
                 2           2
                 3           3
                 4           4

 KPOINTS: Automatic kpoint scheme

Automatic generation of k-mesh.
 Grid dimensions read from file:
 generate k-points for:   12   12   12

 Generating k-lattice:

  Cartesian coordinates                     Fractional coordinates (reciprocal lattice)
     0.018247283 -0.000000000  0.000000000     0.083333333  0.000000000  0.000000000
     0.000000000  0.010748112  0.000000000     0.000000000  0.083333333  0.000000000
    -0.000000000 -0.000000000  0.018116808    -0.000000000  0.000000000  0.083333333

  Length of vectors
     0.018247283  0.010748112  0.018116808

  Shift w.r.t. Gamma in fractional coordinates (k-lattice)
     0.000000000  0.000000000  0.000000000

 Subroutine IBZKPT returns following result:

 Found    343 irreducible k-points:

 Following reciprocal coordinates:
            Coordinates               Weight
  0.000000  0.000000  0.000000      1.000000
  0.083333 -0.000000  0.000000      2.000000
  0.166667  0.000000  0.000000      2.000000
  0.250000 -0.000000  0.000000      2.000000
  0.333333 -0.000000  0.000000      2.000000
  0.416667 -0.000000  0.000000      2.000000
  0.500000 -0.000000  0.000000      1.000000
  0.000000  0.083333  0.000000      2.000000
  0.083333  0.083333  0.000000      4.000000
  0.166667  0.083333  0.000000      4.000000
  0.250000  0.083333  0.000000      4.000000
  0.333333  0.083333  0.000000      4.000000
  0.416667  0.083333  0.000000      4.000000
  0.500000  0.083333  0.000000      2.000000
  0.000000  0.166667  0.000000      2.000000
  0.083333  0.166667  0.000000      4.000000
  0.166667  0.166667  0.000000      4.000000
  0.250000  0.166667  0.000000      4.000000
  0.333333  0.166667  0.000000      4.000000
  0.416667  0.166667  0.000000      4.000000
  0.500000  0.166667  0.000000      2.000000
  0.000000  0.250000  0.000000      2.000000
  0.083333  0.250000  0.000000      4.000000
  0.166667  0.250000  0.000000      4.000000
  0.250000  0.250000  0.000000      4.000000
  0.333333  0.250000  0.000000      4.000000
  0.416667  0.250000  0.000000      4.000000
  0.500000  0.250000  0.000000      2.000000
  0.000000  0.333333  0.000000      2.000000
  0.083333  0.333333  0.000000      4.000000
  0.166667  0.333333  0.000000      4.000000
  0.250000  0.333333  0.000000      4.000000
  0.333333  0.333333  0.000000      4.000000
  0.416667  0.333333  0.000000      4.000000
  0.500000  0.333333  0.000000      2.000000
  0.000000  0.416667  0.000000      2.000000
  0.083333  0.416667  0.000000      4.000000
  0.166667  0.416667  0.000000      4.000000
  0.250000  0.416667  0.000000      4.000000
  0.333333  0.416667  0.000000      4.000000
  0.416667  0.416667  0.000000      4.000000
  0.500000  0.416667  0.000000      2.000000
  0.000000  0.500000  0.000000      1.000000
  0.083333  0.500000  0.000000      2.000000
  0.166667  0.500000  0.000000      2.000000
  0.250000  0.500000  0.000000      2.000000
  0.333333  0.500000  0.000000      2.000000
  0.416667  0.500000  0.000000      2.000000
  0.500000  0.500000  0.000000      1.000000
 -0.000000 -0.000000  0.083333      2.000000
  0.083333 -0.000000  0.083333      4.000000
  0.166667  0.000000  0.083333      4.000000
  0.250000 -0.000000  0.083333      4.000000
  0.333333  0.000000  0.083333      4.000000
  0.416667 -0.000000  0.083333      4.000000
  0.500000  0.000000  0.083333      2.000000
 -0.000000  0.083333  0.083333      4.000000
  0.083333  0.083333  0.083333      8.000000
  0.166667  0.083333  0.083333      8.000000
  0.250000  0.083333  0.083333      8.000000
[...]
  0.500000  0.333333  0.500000      2.000000
 -0.000000  0.416667  0.500000      2.000000
  0.083333  0.416667  0.500000      4.000000
  0.166667  0.416667  0.500000      4.000000
  0.250000  0.416667  0.500000      4.000000
  0.333333  0.416667  0.500000      4.000000
  0.416667  0.416667  0.500000      4.000000
  0.500000  0.416667  0.500000      2.000000
 -0.000000  0.500000  0.500000      1.000000
  0.083333  0.500000  0.500000      2.000000
  0.166667  0.500000  0.500000      2.000000
  0.250000  0.500000  0.500000      2.000000
  0.333333  0.500000  0.500000      2.000000
  0.416667  0.500000  0.500000      2.000000
  0.500000  0.500000  0.500000      1.000000

 Following cartesian coordinates:
            Coordinates               Weight
  0.000000  0.000000  0.000000      1.000000
  0.018247 -0.000000  0.000000      2.000000
  0.036495 -0.000000  0.000000      2.000000
  0.054742 -0.000000  0.000000      2.000000
  0.072989 -0.000000  0.000000      2.000000
  0.091236 -0.000000  0.000000      2.000000
  0.109484 -0.000000  0.000000      1.000000
  0.000000  0.010748  0.000000      2.000000
  0.018247  0.010748  0.000000      4.000000
  0.036495  0.010748  0.000000      4.000000
  0.054742  0.010748  0.000000      4.000000
  0.072989  0.010748  0.000000      4.000000
  0.091236  0.010748  0.000000      4.000000
  0.109484  0.010748  0.000000      2.000000
  0.000000  0.021496  0.000000      2.000000
  0.018247  0.021496  0.000000      4.000000
  0.036495  0.021496  0.000000      4.000000
  0.054742  0.021496  0.000000      4.000000
  0.072989  0.021496  0.000000      4.000000
  0.091236  0.021496  0.000000      4.000000
  0.109484  0.021496  0.000000      2.000000
  0.000000  0.032244  0.000000      2.000000
  0.018247  0.032244  0.000000      4.000000
  0.036495  0.032244  0.000000      4.000000
  0.054742  0.032244  0.000000      4.000000
  0.072989  0.032244  0.000000      4.000000
  0.091236  0.032244  0.000000      4.000000
  0.109484  0.032244  0.000000      2.000000
  0.000000  0.042992  0.000000      2.000000
[...]
 k-point    16 :   0.0833 0.1667 0.0000  plane waves:    2585
 k-point    17 :   0.1667 0.1667 0.0000  plane waves:    2599
 k-point    18 :   0.2500 0.1667 0.0000  plane waves:    2602
 k-point    19 :   0.3333 0.1667 0.0000  plane waves:    2616
 k-point    20 :   0.4167 0.1667 0.0000  plane waves:    2612
 k-point    21 :   0.5000 0.1667 0.0000  plane waves:    2604
 k-point    22 :   0.0000 0.2500 0.0000  plane waves:    2590
 k-point    23 :   0.0833 0.2500 0.0000  plane waves:    2595
 k-point    24 :   0.1667 0.2500 0.0000  plane waves:    2602
 k-point    25 :   0.2500 0.2500 0.0000  plane waves:    2612
 k-point    26 :   0.3333 0.2500 0.0000  plane waves:    2613
 k-point    27 :   0.4167 0.2500 0.0000  plane waves:    2611
 k-point    28 :   0.5000 0.2500 0.0000  plane waves:    2600
 k-point    29 :   0.0000 0.3333 0.0000  plane waves:    2606
 k-point    30 :   0.0833 0.3333 0.0000  plane waves:    2598
 k-point    31 :   0.1667 0.3333 0.0000  plane waves:    2607
 k-point    32 :   0.2500 0.3333 0.0000  plane waves:    2609
 k-point    33 :   0.3333 0.3333 0.0000  plane waves:    2601
 k-point    34 :   0.4167 0.3333 0.0000  plane waves:    2615
 k-point    35 :   0.5000 0.3333 0.0000  plane waves:    2614
 k-point    36 :   0.0000 0.4167 0.0000  plane waves:    2610
 k-point    37 :   0.0833 0.4167 0.0000  plane waves:    2604
 k-point    38 :   0.1667 0.4167 0.0000  plane waves:    2614
 k-point    39 :   0.2500 0.4167 0.0000  plane waves:    2621
 k-point    40 :   0.3333 0.4167 0.0000  plane waves:    2613
 k-point    41 :   0.4167 0.4167 0.0000  plane waves:    2615
 k-point    42 :   0.5000 0.4167 0.0000  plane waves:    2618
 k-point    43 :   0.0000 0.5000 0.0000  plane waves:    2588
 k-point    44 :   0.0833 0.5000 0.0000  plane waves:    2612
 k-point    45 :   0.1667 0.5000 0.0000  plane waves:    2616
 k-point    46 :   0.2500 0.5000 0.0000  plane waves:    2616
 k-point    47 :   0.3333 0.5000 0.0000  plane waves:    2614
 k-point    48 :   0.4167 0.5000 0.0000  plane waves:    2616
 k-point    49 :   0.5000 0.5000 0.0000  plane waves:    2624
 k-point    50 :  -0.0000-0.0000 0.0833  plane waves:    2579
 k-point    51 :   0.0833-0.0000 0.0833  plane waves:    2573
 k-point    52 :   0.1667 0.0000 0.0833  plane waves:    2588
 k-point    53 :   0.2500-0.0000 0.0833  plane waves:    2608
 k-point    54 :   0.3333 0.0000 0.0833  plane waves:    2616
 k-point    55 :   0.4167-0.0000 0.0833  plane waves:    2608
 k-point    56 :   0.5000 0.0000 0.0833  plane waves:    2606
 k-point    57 :  -0.0000 0.0833 0.0833  plane waves:    2583
 k-point    58 :   0.0833 0.0833 0.0833  plane waves:    2581
 k-point    59 :   0.1667 0.0833 0.0833  plane waves:    2597
 k-point    60 :   0.2500 0.0833 0.0833  plane waves:    2599
[...]
 k-point   329 :   0.5000 0.3333 0.5000  plane waves:    2616
 k-point   330 :  -0.0000 0.4167 0.5000  plane waves:    2610
 k-point   331 :   0.0833 0.4167 0.5000  plane waves:    2614
 k-point   332 :   0.1667 0.4167 0.5000  plane waves:    2606
 k-point   333 :   0.2500 0.4167 0.5000  plane waves:    2604
 k-point   334 :   0.3333 0.4167 0.5000  plane waves:    2606
 k-point   335 :   0.4167 0.4167 0.5000  plane waves:    2612
 k-point   336 :   0.5000 0.4167 0.5000  plane waves:    2600
 k-point   337 :  -0.0000 0.5000 0.5000  plane waves:    2616
 k-point   338 :   0.0833 0.5000 0.5000  plane waves:    2608
 k-point   339 :   0.1667 0.5000 0.5000  plane waves:    2616
 k-point   340 :   0.2500 0.5000 0.5000  plane waves:    2604
 k-point   341 :   0.3333 0.5000 0.5000  plane waves:    2616
 k-point   342 :   0.4167 0.5000 0.5000  plane waves:    2604
 k-point   343 :   0.5000 0.5000 0.5000  plane waves:    2616

 maximum and minimum number of plane-waves per node :      2630     2573

 maximum number of plane-waves:      2630
 maximum index in each direction:
   IXMAX=    7   IYMAX=   12   IZMAX=    7
   IXMIN=   -7   IYMIN=  -12   IZMIN=   -7

 serial   3D FFT for wavefunctions
 parallel 3D FFT for charge:
    minimum data exchange during FFTs selected (reduces bandwidth)

 Broyden mixing: mesh for mixing (old mesh)
   NGX = 15   NGY = 25   NGZ = 15
  (NGX  = 48   NGY  = 72   NGZ  = 48)
  gives a total of   5625 points

 charge density for first step will be calculated from the start-wavefunctions

 Maximum index for augmentation-charges          324 (set IRDMAX)

 initial charge from wavefunction
 First call to EWALD:  gamma=   0.325
 Maximum number of real-space cells 3x 2x 3
 Maximum number of reciprocal cells 2x 4x 2

--------------------------------------- Ionic step        1  -------------------------------------------

--------------------------------------- Iteration      1(   1)  ---------------------------------------

 eigenvalue-minimisations  : 53328
 total energy-change (2. order) :-0.2325196E+02  (-0.5013417E-06)
 number of electron     103.9999505 magnetization
 augmentation part       67.2143810 magnetization

 Broyden mixing:
  rms(total) = 0.15182E-03    rms(broyden)= 0.15181E-03
  rms(prec ) = 0.26772E-03
  weight for this iteration     100.00

 Free energy of the ion-electron system (eV)
  alpha Z        PSCENC =       530.62805093
  Ewald energy   TEWEN  =     -9926.88634261
  -Hartree energ DENC   =     -4689.19094711
  -exchange      EXHF   =         0.00000000
  -V(xc)+E(xc)   XCENC  =       349.43506898
  PAW double counting   =     13742.72500386   -16412.90174120
  entropy T*S    EENTRO =        -0.00230281
  eigenvalues    EBANDS =      -807.55828688
  atomic energy  EATOM  =     17190.49953390
  Solvation  Ediel_sol  =         0.00000000
  free energy    TOTEN  =       -23.25196296 eV

  energy without entropy =      -23.24966015  energy(sigma->0) =      -23.25081155

--------------------------------------- Iteration      1(   2)  ---------------------------------------

 eigenvalue-minimisations  : 45504
 total energy-change (2. order) : 0.5213587E-07  (-0.4471233E-07)
 number of electron     103.9999505 magnetization
 augmentation part       67.2143810 magnetization

 Free energy of the ion-electron system (eV)
  alpha Z        PSCENC =       530.62805093
  Ewald energy   TEWEN  =     -9926.88634261
  -Hartree energ DENC   =     -4689.19617504
  -exchange      EXHF   =         0.00000000
  -V(xc)+E(xc)   XCENC  =       349.43528470
  PAW double counting   =     13742.73034597   -16412.91293841
  entropy T*S    EENTRO =        -0.00230299
  eigenvalues    EBANDS =      -807.54741933
  atomic energy  EATOM  =     17190.49953390
  Solvation  Ediel_sol  =         0.00000000
  free energy    TOTEN  =       -23.25196290 eV

  energy without entropy =      -23.24965991  energy(sigma->0) =      -23.25081141

 average (electrostatic) potential at core
  the test charge radii are     1.0314
  (the norm of the test charge is              1.0000)
       1 -65.7362       2 -65.7362       3 -65.7362       4 -65.7362       5 -65.7362
       6 -65.7362       7 -65.7362       8 -65.7362

 E-fermi :   4.6663     XC(G=0): -10.4579     alpha+bet :-10.7731

 val. band max:        4.6641951345   @ k =   0.0833  -0.0000   0.4167
 cond. band min:       4.6665049788   @ k =  -0.0000   0.4167   0.4167
 fundamental gap:      0.0023098443
 Fermi energy:         4.6663378025

 k-point     1 :       0.0000    0.0000    0.0000
  band No.  band energies     occupation
      1     -10.4398      2.00000
      2     -10.3925      2.00000
      3     -10.3915      2.00000
      4     -10.3828      2.00000
      5     -10.3807      2.00000
      6     -10.3521      2.00000
      7     -10.3466      2.00000
      8     -10.3379      2.00000
      9     -10.3320      2.00000
     10     -10.3233      2.00000
     11     -10.3008      2.00000
     12     -10.2827      2.00000
     13     -10.2437      2.00000
     14     -10.2387      2.00000
     15     -10.2367      2.00000
     16     -10.2216      2.00000
     17     -10.2033      2.00000
     18     -10.1940      2.00000
     19     -10.1721      2.00000
     20     -10.1629      2.00000
     21     -10.1546      2.00000
     22     -10.1479      2.00000
     23     -10.1446      2.00000
     24     -10.1357      2.00000
     25     -10.1316      2.00000
     26     -10.1033      2.00000
     27     -10.0851      2.00000
     28     -10.0800      2.00000
     29     -10.0315      2.00000
     30     -10.0312      2.00000
     31     -10.0071      2.00000
     32     -10.0057      2.00000
     33      -9.9914      2.00000
     34      -9.9813      2.00000
     35      -9.9805      2.00000
     36      -9.9617      2.00000
     37      -9.9580      2.00000
     38      -9.9559      2.00000
     39      -9.9553      2.00000
     40      -9.8852      2.00000
     41      -6.0693      2.00000
     42      -4.4503      2.00000
     43      -2.3316      2.00000
     44       0.4401      2.00000
     45       0.5343      2.00000
     46       1.0312      2.00000
     47       1.5996      2.00000
     48       2.8429      2.00000
     49       2.8751      2.00000
     50       3.0729      2.00000
     51       3.1963      2.00000
     52       4.0444      2.00000
     53       5.5539      0.00000
     54       5.6441      0.00000
     55       5.8017      0.00000
     56       5.8687      0.00000
     57       5.9415      0.00000
     58       7.8470      0.00000
     59       8.3455      0.00000
     60       8.9083      0.00000
[...]
     82      19.5094      0.00000
     83      20.4947      0.00000
     84      20.5853      0.00000
     85      20.6381      0.00000
     86      20.8825      0.00000
     87      21.2365      0.00000
     88      23.0157      0.00000
     89      23.2793      0.00000
     90      23.3771      0.00000
     91      24.0538      0.00000
     92      24.3412      0.00000
     93      24.6801      0.00000
     94      24.7589      0.00000
     95      24.9369      0.00000
     96      25.0205      0.00000

[...]

 k-point   343 :       0.5000    0.5000    0.5000
  band No.  band energies     occupation
      1     -10.3868      2.00000
      2     -10.3868      2.00000
      3     -10.3868      2.00000
      4     -10.3868      2.00000
      5     -10.3483      2.00000
      6     -10.3483      2.00000
      7     -10.3483      2.00000
      8     -10.3483      2.00000
      9     -10.3186      2.00000
     10     -10.3186      2.00000
     11     -10.3186      2.00000
     12     -10.3186      2.00000
     13     -10.3174      2.00000
     14     -10.3174      2.00000
     15     -10.3174      2.00000
     16     -10.3174      2.00000
     17     -10.1393      2.00000
     18     -10.1393      2.00000
     19     -10.1393      2.00000
     20     -10.1393      2.00000
     21     -10.1367      2.00000
     22     -10.1367      2.00000
     23     -10.1367      2.00000
     24     -10.1367      2.00000
     25     -10.0653      2.00000
     26     -10.0653      2.00000
     27     -10.0653      2.00000
     28     -10.0653      2.00000
     29     -10.0595      2.00000
     30     -10.0595      2.00000
     31     -10.0595      2.00000
     32     -10.0595      2.00000
     33      -9.9619      2.00000
     34      -9.9619      2.00000
     35      -9.9619      2.00000
     36      -9.9619      2.00000
     37      -9.9240      2.00000
     38      -9.9240      2.00000
     39      -9.9240      2.00000
     40      -9.9240      2.00000
     41      -2.3365      2.00000
     42      -2.3365      2.00000
     43      -2.3365      2.00000
     44      -2.3365      2.00000
     45      -1.3990      2.00000
     46      -1.3990      2.00000
     47      -1.3990      2.00000
     48      -1.3990      2.00000
     49       3.2558      2.00000
     50       3.2558      2.00000
     51       3.2558      2.00000
     52       3.2558      2.00000
     53       5.2146      0.00000
     54       5.2146      0.00000
     55       5.2146      0.00000
     56       5.2146      0.00000
     57      11.6165      0.00000
     58      11.6165      0.00000
     59      11.6165      0.00000
     60      11.6165      0.00000
[...]
     82      19.0012      0.00000
     83      19.0012      0.00000
     84      19.0012      0.00000
     85      19.0960      0.00000
     86      19.0960      0.00000
     87      19.0960      0.00000
     88      19.0960      0.00000
     89      19.9348      0.00000
     90      19.9348      0.00000
     91      19.9348      0.00000
     92      19.9348      0.00000
     93      21.1099      0.00000
     94      21.1099      0.00000
     95      21.1099      0.00000
     96      21.1099      0.00000

 soft charge-density along one line, spin component           1
         0         1         2         3         4         5         6         7         8         9
 total charge-density along one line

------------------------ aborting loop because EDIFF is reached ----------------------------------------

  FORCE on cell =-STRESS in cart. coord.  units (eV):
  Direction    XX          YY          ZZ          XY          YZ          ZX
  Alpha Z   530.62805   530.62805   530.62805
  Ewald   -3092.08355 -3609.62875 -3225.18966     0.00000     0.00000    -0.00000
  Hartree  1728.22980  1326.47899  1634.49057    -0.00000    -0.00000    -0.00000
  E(xc)    -626.69183  -626.58501  -626.73055    -0.00000     0.00000    -0.00000
  Local    -100.25845   809.96855   123.14897     0.00000    -0.00000     0.00000
  n-local    74.46327    80.89732    76.51931    -0.43898    -0.69160     0.59781
  augment   975.82260   976.20757   976.02830     0.00000     0.00000    -0.00000
  Kinetic   509.65885   511.58893   510.51018    -2.65148    -2.70554     5.02844
  Fock        0.00000     0.00000     0.00000     0.00000     0.00000     0.00000
  Total      -0.23126    -0.44436    -0.59483     0.00000     0.00000     0.00000
  in kB      -2.27495    -4.37125    -5.85137     0.00000     0.00000     0.00000

 VOLUME and BASIS-vectors are now :
  energy-cutoff  :      367.50
  volume of cell :      162.87
      direct lattice vectors                 reciprocal lattice vectors
     4.566890000  0.000000000  0.000000000     0.218967394 -0.000000000  0.000000000
     0.000000000  7.753300000  0.000000000     0.000000000  0.128977339  0.000000000
     0.000000000  0.000000000  4.599780000    -0.000000000 -0.000000000  0.217401702

  length of vectors
     4.566890000  7.753300000  4.599780000     0.218967394  0.128977339  0.217401702

 FORCES acting on ions
    electron-ion (+dipol)            ewald-force                    non-local-force                 convergence-correction
   -.294E-12 0.773E+02 0.615E+01   0.263E-12 -.812E+02 -.734E+01   0.554E-15 0.395E+01 0.120E+01   0.328E-13 0.131E-02 -.537E-02
   0.220E-12 -.773E+02 -.615E+01   -.287E-12 0.812E+02 0.734E+01   -.577E-15 -.395E+01 -.120E+01   -.555E-13 -.131E-02 0.537E-02
   -.183E-12 -.773E+02 0.615E+01   -.620E-14 0.812E+02 -.734E+01   -.596E-15 -.395E+01 0.120E+01   0.974E-13 -.131E-02 -.537E-02
   0.495E-14 0.773E+02 -.615E+01   -.219E-13 -.812E+02 0.734E+01   0.570E-15 0.395E+01 -.120E+01   -.149E-12 0.131E-02 0.537E-02
   0.671E-12 0.773E+02 0.615E+01   0.286E-12 -.812E+02 -.734E+01   0.608E-15 0.395E+01 0.120E+01   0.914E-13 0.131E-02 -.537E-02
   0.129E-11 -.773E+02 -.615E+01   -.263E-12 0.812E+02 0.734E+01   -.583E-15 -.395E+01 -.120E+01   0.113E-13 -.131E-02 0.537E-02
   0.922E-12 -.773E+02 0.615E+01   0.211E-13 0.812E+02 -.734E+01   -.603E-15 -.395E+01 0.120E+01   0.186E-12 -.131E-02 -.537E-02
   0.104E-11 0.773E+02 -.615E+01   0.541E-14 -.812E+02 0.734E+01   0.604E-15 0.395E+01 -.120E+01   -.789E-13 0.131E-02 0.537E-02
   0.366E-11 0.759E-10 -.362E-10   -.276E-14 0.142E-13 -.124E-13   -.233E-16 -.888E-15 -.222E-15   0.135E-12 -.505E-13 0.174E-12

 POSITION                                       TOTAL-FORCE (eV/Angst)
      0.00000      1.21277      0.37350        -0.000000     -0.009742      0.010120
      0.00000      6.54053      4.22628         0.000000      0.009742     -0.010120
      0.00000      2.66388      2.67339         0.000000      0.009742      0.010120
      0.00000      5.08942      1.92639        -0.000000     -0.009742     -0.010120
      2.28345      5.08942      0.37350        -0.000000     -0.009742      0.010120
      2.28345      2.66388      4.22628         0.000000      0.009742     -0.010120
      2.28345      6.54053      2.67339         0.000000      0.009742      0.010120
      2.28344      1.21277      1.92639        -0.000000     -0.009742     -0.010120
    total drift:                                0.000000      0.000000     -0.000000

  FREE ENERGIE OF THE ION-ELECTRON SYSTEM (eV)
  free  energy   TOTEN  =       -23.25196290 eV

  energy  without entropy=      -23.24965991  energy(sigma->0) =      -23.25081141

 writing wavefunctions