 vasp.6.4.3 19Mar24 (build Jun 26 2024 13:02:28) complex

 executed on             LinuxIFC date 2025.08.08  18:53:30

 INCAR:
   ENCUT = 243.33530000000002
   IBRION = -1
   ISMEAR = 0
   ISYM = 2
   LCHARG = True
   LWAVE = True
   SIGMA = 0.05
   SYSTEM = Ba

 POTCAR:  PAW_PBE Ba_sv 06Sep2000
|           W    W    AA    RRRRR   N    N  II  N    N   GGGG   !!!           |
|           W    W   A  A   R    R  NN   N  II  NN   N  G    G  !!!           |
|           W    W  A    A  R    R  N N  N  II  N N  N  G       !!!           |
|           W WW W  AAAAAA  RRRRR   N  N N  II  N  N N  G  GGG   !            |
|           WW  WW  A    A  R   R   N   NN  II  N   NN  G    G                |
|           W    W  A    A  R    R  N    N  II  N    N   GGGG   !!!           |
|     For optimal performance we recommend to set                             |
|       NCORE = 2 up to number-of-cores-per-socket                            |
|     This setting can greatly improve the performance of VASP for DFT.       |
|     The default, NCORE=1 might be grossly inefficient on modern             |
|     multi-core architectures or massively parallel machines. Do your        |
|     Unfortunately you need to use the default for GW and RPA                |
|     calculations (for HF NCORE is supported but not extensively tested      |
|     yet).                                                                   |

 POTCAR:  PAW_PBE Ba_sv 06Sep2000
   VRHFIN =Ba: 5s5p6s

   TITEL  = PAW_PBE Ba_sv 06Sep2000
   POMASS =  137.327; ZVAL   =   10.000    mass and valenz
   ENMAX  =  187.181; ENMIN  =  140.386 eV

PAW_PBE Ba_sv 06Sep2000                 :

 POSCAR: Ba2
  positions in direct lattice

 exchange-correlation table for PE
   RHO(1)=    0.500       N(1)  =     2000
   RHO(2)=  100.500       N(2)  =     4000

 ion  position               nearest neighbor table
   1  0.000  0.000  0.000-   2 4.35   2 4.35   2 4.35   2 4.35   2 4.35   2 4.35   2 4.35   2 4.35

   2  0.500  0.500  0.500-   1 4.35   1 4.35   1 4.35   1 4.35   1 4.35   1 4.35   1 4.35   1 4.35

  LATTYP: Found a simple cubic cell.
 ALAT       =     5.0279200000

  Lattice vectors:

 A1 = (   5.0279200000,   0.0000000000,   0.0000000000)
 A2 = (   0.0000000000,   5.0279200000,   0.0000000000)
 A3 = (   0.0000000000,   0.0000000000,   5.0279200000)

Analysis of symmetry for initial positions (statically):
 Subroutine PRICEL returns following result:

  LATTYP: Found a body centered cubic cell.
 ALAT       =     5.0279200000

[...]

   2 primitive cells build up your supercell.

 Routine SETGRP: Setting up the symmetry group for a
 simple cubic supercell.

 Subroutine GETGRP returns: Found 48 space group operations
 (whereof 48 operations were pure point group operations)
 out of a pool of 48 trial point group operations.

The static configuration has the point symmetry O_h .

Analysis of symmetry for dynamics (positions and initial velocities):
 Subroutine PRICEL returns following result:

  LATTYP: Found a body centered cubic cell.
 ALAT       =     5.0279200000

  Lattice vectors:

 A1 = (   2.5139600000,   2.5139600000,  -2.5139600000)
 A2 = (  -2.5139600000,   2.5139600000,   2.5139600000)
 A3 = (   2.5139600000,  -2.5139600000,   2.5139600000)

   2 primitive cells build up your supercell.

 Routine SETGRP: Setting up the symmetry group for a
 simple cubic supercell.

 Subroutine GETGRP returns: Found 48 space group operations
 (whereof 48 operations were pure point group operations)
 out of a pool of 48 trial point group operations.

The dynamic configuration has the point symmetry O_h .

 Subroutine INISYM returns: Found 48 space group operations
 (whereof 48 operations are pure point group operations),
 and found     2 'primitive' translations

                                     Primitive cell

  volume of cell :      63.5529

  direct lattice vectors                    reciprocal lattice vectors
     2.513960000  2.513960000 -2.513960000     0.198889402  0.198889402 -0.000000000
    -2.513960000  2.513960000  2.513960000    -0.000000000  0.198889402  0.198889402
     2.513960000 -2.513960000  2.513960000     0.198889402 -0.000000000  0.198889402

  length of vectors
     4.354306448  4.354306448  4.354306448     0.281272089  0.281272089  0.281272089

  position of ions in fractional coordinates (direct lattice)
     0.000000000  0.000000000  0.000000000

  ion indices of the primitive-cell ions
   primitive index   ion index
                 1           1

 KPOINTS: Automatic kpoint scheme

Automatic generation of k-mesh.
 Grid dimensions read from file:
 generate k-points for:   12   12   12

 Generating k-lattice:

  Cartesian coordinates                     Fractional coordinates (reciprocal lattice)
     0.016574117 -0.000000000  0.000000000     0.083333333  0.000000000  0.000000000
     0.000000000  0.016574117  0.000000000     0.000000000  0.083333333  0.000000000
    -0.000000000 -0.000000000  0.016574117     0.000000000 -0.000000000  0.083333333

  Length of vectors
     0.016574117  0.016574117  0.016574117

  Shift w.r.t. Gamma in fractional coordinates (k-lattice)
     0.000000000  0.000000000  0.000000000

 Subroutine IBZKPT returns following result:

 Found     84 irreducible k-points:

 Following reciprocal coordinates:
            Coordinates               Weight
  0.000000  0.000000  0.000000      1.000000
  0.083333  0.000000  0.000000      6.000000
  0.166667  0.000000  0.000000      6.000000
  0.250000  0.000000  0.000000      6.000000
  0.333333  0.000000  0.000000      6.000000
  0.416667  0.000000  0.000000      6.000000
  0.500000  0.000000  0.000000      3.000000
  0.083333  0.083333  0.000000     12.000000
  0.166667  0.083333  0.000000     24.000000
  0.250000  0.083333  0.000000     24.000000
  0.333333  0.083333  0.000000     24.000000
  0.416667  0.083333  0.000000     24.000000
  0.500000  0.083333  0.000000     12.000000
  0.166667  0.166667  0.000000     12.000000
  0.250000  0.166667  0.000000     24.000000
  0.333333  0.166667  0.000000     24.000000
  0.416667  0.166667  0.000000     24.000000
  0.500000  0.166667  0.000000     12.000000
  0.250000  0.250000  0.000000     12.000000
  0.333333  0.250000  0.000000     24.000000
  0.416667  0.250000  0.000000     24.000000
  0.500000  0.250000  0.000000     12.000000
  0.333333  0.333333  0.000000     12.000000
  0.416667  0.333333  0.000000     24.000000
  0.500000  0.333333  0.000000     12.000000
  0.416667  0.416667  0.000000     12.000000
  0.500000  0.416667  0.000000     12.000000
  0.500000  0.500000  0.000000      3.000000
  0.083333  0.083333  0.083333      8.000000
  0.166667  0.083333  0.083333     24.000000
  0.250000  0.083333  0.083333     24.000000
  0.333333  0.083333  0.083333     24.000000
  0.416667  0.083333  0.083333     24.000000
  0.500000  0.083333  0.083333     12.000000
  0.166667  0.166667  0.083333     24.000000
  0.250000  0.166667  0.083333     48.000000
  0.333333  0.166667  0.083333     48.000000
  0.416667  0.166667  0.083333     48.000000
  0.500000  0.166667  0.083333     24.000000
  0.250000  0.250000  0.083333     24.000000
  0.333333  0.250000  0.083333     48.000000
  0.416667  0.250000  0.083333     48.000000
  0.500000  0.250000  0.083333     24.000000
  0.333333  0.333333  0.083333     24.000000
  0.416667  0.333333  0.083333     48.000000
  0.500000  0.333333  0.083333     24.000000
  0.416667  0.416667  0.083333     24.000000
  0.500000  0.416667  0.083333     24.000000
  0.500000  0.500000  0.083333      6.000000
  0.166667  0.166667  0.166667      8.000000
  0.250000  0.166667  0.166667     24.000000
  0.333333  0.166667  0.166667     24.000000
  0.416667  0.166667  0.166667     24.000000
  0.500000  0.166667  0.166667     12.000000
  0.250000  0.250000  0.166667     24.000000
  0.333333  0.250000  0.166667     48.000000
  0.416667  0.250000  0.166667     48.000000
  0.500000  0.250000  0.166667     24.000000
  0.333333  0.333333  0.166667     24.000000
  0.416667  0.333333  0.166667     48.000000
[...]
  0.416667  0.333333  0.250000     48.000000
  0.500000  0.333333  0.250000     24.000000
  0.416667  0.416667  0.250000     24.000000
  0.500000  0.416667  0.250000     24.000000
  0.500000  0.500000  0.250000      6.000000
  0.333333  0.333333  0.333333      8.000000
  0.416667  0.333333  0.333333     24.000000
  0.500000  0.333333  0.333333     12.000000
  0.416667  0.416667  0.333333     24.000000
  0.500000  0.416667  0.333333     24.000000
  0.500000  0.500000  0.333333      6.000000
  0.416667  0.416667  0.416667      8.000000
  0.500000  0.416667  0.416667     12.000000
  0.500000  0.500000  0.416667      6.000000
  0.500000  0.500000  0.500000      1.000000

 Following cartesian coordinates:
            Coordinates               Weight
  0.000000  0.000000  0.000000      1.000000
  0.016574 -0.000000  0.000000      6.000000
  0.033148 -0.000000  0.000000      6.000000
  0.049722 -0.000000  0.000000      6.000000
  0.066296 -0.000000  0.000000      6.000000
  0.082871 -0.000000  0.000000      6.000000
  0.099445 -0.000000  0.000000      3.000000
  0.016574  0.016574  0.000000     12.000000
  0.033148  0.016574  0.000000     24.000000
  0.049722  0.016574  0.000000     24.000000
  0.066296  0.016574  0.000000     24.000000
  0.082871  0.016574  0.000000     24.000000
  0.099445  0.016574  0.000000     12.000000
  0.033148  0.033148  0.000000     12.000000
  0.049722  0.033148  0.000000     24.000000
  0.066296  0.033148  0.000000     24.000000
  0.082871  0.033148  0.000000     24.000000
  0.099445  0.033148  0.000000     12.000000
  0.049722  0.049722  0.000000     12.000000
  0.066296  0.049722  0.000000     24.000000
  0.082871  0.049722  0.000000     24.000000
  0.099445  0.049722  0.000000     12.000000
  0.066296  0.066296  0.000000     12.000000
  0.082871  0.066296  0.000000     24.000000
  0.099445  0.066296  0.000000     12.000000
  0.082871  0.082871  0.000000     12.000000
  0.099445  0.082871  0.000000     12.000000
  0.099445  0.099445  0.000000      3.000000
  0.016574  0.016574  0.016574      8.000000
  0.033148  0.016574  0.016574     24.000000
  0.049722  0.016574  0.016574     24.000000
  0.066296  0.016574  0.016574     24.000000
  0.082871  0.016574  0.016574     24.000000
  0.099445  0.016574  0.016574     12.000000
  0.033148  0.033148  0.016574     24.000000
  0.049722  0.033148  0.016574     48.000000
  0.066296  0.033148  0.016574     48.000000
  0.082871  0.033148  0.016574     48.000000
  0.099445  0.033148  0.016574     24.000000
  0.049722  0.049722  0.016574     24.000000
  0.066296  0.049722  0.016574     48.000000
  0.082871  0.049722  0.016574     48.000000
  0.099445  0.049722  0.016574     24.000000
  0.066296  0.066296  0.016574     24.000000
  0.082871  0.066296  0.016574     48.000000
  0.099445  0.066296  0.016574     24.000000
  0.082871  0.082871  0.016574     24.000000
  0.099445  0.082871  0.016574     24.000000
  0.099445  0.099445  0.016574      6.000000
  0.033148  0.033148  0.033148      8.000000
  0.049722  0.033148  0.033148     24.000000
  0.066296  0.033148  0.033148     24.000000
  0.082871  0.033148  0.033148     24.000000
[...]
   0.16666667  0.16666667  0.08333333       0.014
   0.25000000  0.16666667  0.08333333       0.028
   0.33333333  0.16666667  0.08333333       0.028
   0.41666667  0.16666667  0.08333333       0.028
   0.50000000  0.16666667  0.08333333       0.014
   0.25000000  0.25000000  0.08333333       0.014
   0.33333333  0.25000000  0.08333333       0.028
   0.41666667  0.25000000  0.08333333       0.028
   0.50000000  0.25000000  0.08333333       0.014
   0.33333333  0.33333333  0.08333333       0.014
   0.41666667  0.33333333  0.08333333       0.028
   0.50000000  0.33333333  0.08333333       0.014
   0.41666667  0.41666667  0.08333333       0.014
   0.50000000  0.41666667  0.08333333       0.014
   0.50000000  0.50000000  0.08333333       0.003
   0.16666667  0.16666667  0.16666667       0.005
   0.25000000  0.16666667  0.16666667       0.014
   0.33333333  0.16666667  0.16666667       0.014
   0.41666667  0.16666667  0.16666667       0.014
   0.50000000  0.16666667  0.16666667       0.007
   0.25000000  0.25000000  0.16666667       0.014
   0.33333333  0.25000000  0.16666667       0.028
   0.41666667  0.25000000  0.16666667       0.028
   0.50000000  0.25000000  0.16666667       0.014
   0.33333333  0.33333333  0.16666667       0.014
   0.41666667  0.33333333  0.16666667       0.028
[...]
   0.41666667  0.33333333  0.25000000       0.028
   0.50000000  0.33333333  0.25000000       0.014
   0.41666667  0.41666667  0.25000000       0.014
   0.50000000  0.41666667  0.25000000       0.014
   0.50000000  0.50000000  0.25000000       0.003
   0.33333333  0.33333333  0.33333333       0.005
   0.41666667  0.33333333  0.33333333       0.014
   0.50000000  0.33333333  0.33333333       0.007
   0.41666667  0.41666667  0.33333333       0.014
   0.50000000  0.41666667  0.33333333       0.014
   0.50000000  0.50000000  0.33333333       0.003
   0.41666667  0.41666667  0.41666667       0.005
   0.50000000  0.41666667  0.41666667       0.007
   0.50000000  0.50000000  0.41666667       0.003
   0.50000000  0.50000000  0.50000000       0.001

 position of ions in fractional coordinates (direct lattice)
   0.00000000  0.00000000  0.00000000
   0.50000000  0.50000000  0.50000000

 position of ions in cartesian coordinates  (Angst):
   0.00000000  0.00000000  0.00000000
   2.51396000  2.51396000  2.51396000

 k-point     1 :   0.0000 0.0000 0.0000  plane waves:    1045
 k-point     2 :   0.0833 0.0000 0.0000  plane waves:    1085
 k-point     3 :   0.1667 0.0000 0.0000  plane waves:    1101
 k-point     4 :   0.2500 0.0000 0.0000  plane waves:    1097
 k-point     5 :   0.3333 0.0000 0.0000  plane waves:    1089
 k-point     6 :   0.4167 0.0000 0.0000  plane waves:    1100
 k-point     7 :   0.5000 0.0000 0.0000  plane waves:    1108
 k-point     8 :   0.0833 0.0833 0.0000  plane waves:    1089
 k-point     9 :   0.1667 0.0833 0.0000  plane waves:    1100
 k-point    10 :   0.2500 0.0833 0.0000  plane waves:    1094
 k-point    11 :   0.3333 0.0833 0.0000  plane waves:    1099
 k-point    12 :   0.4167 0.0833 0.0000  plane waves:    1103
 k-point    13 :   0.5000 0.0833 0.0000  plane waves:    1108
 k-point    14 :   0.1667 0.1667 0.0000  plane waves:    1103
 k-point    15 :   0.2500 0.1667 0.0000  plane waves:    1095
 k-point    16 :   0.3333 0.1667 0.0000  plane waves:    1104
 k-point    17 :   0.4167 0.1667 0.0000  plane waves:    1105
 k-point    18 :   0.5000 0.1667 0.0000  plane waves:    1098
 k-point    19 :   0.2500 0.2500 0.0000  plane waves:    1103
 k-point    20 :   0.3333 0.2500 0.0000  plane waves:    1099
 k-point    21 :   0.4167 0.2500 0.0000  plane waves:    1097
 k-point    22 :   0.5000 0.2500 0.0000  plane waves:    1104
 k-point    23 :   0.3333 0.3333 0.0000  plane waves:    1095
 k-point    24 :   0.4167 0.3333 0.0000  plane waves:    1094
 k-point    25 :   0.5000 0.3333 0.0000  plane waves:    1090
 k-point    26 :   0.4167 0.4167 0.0000  plane waves:    1093
 k-point    27 :   0.5000 0.4167 0.0000  plane waves:    1090
 k-point    28 :   0.5000 0.5000 0.0000  plane waves:    1092
 k-point    29 :   0.0833 0.0833 0.0833  plane waves:    1099
 k-point    30 :   0.1667 0.0833 0.0833  plane waves:    1102
 k-point    31 :   0.2500 0.0833 0.0833  plane waves:    1093
 k-point    32 :   0.3333 0.0833 0.0833  plane waves:    1097
 k-point    33 :   0.4167 0.0833 0.0833  plane waves:    1102
 k-point    34 :   0.5000 0.0833 0.0833  plane waves:    1100
 k-point    35 :   0.1667 0.1667 0.0833  plane waves:    1098
 k-point    36 :   0.2500 0.1667 0.0833  plane waves:    1095
 k-point    37 :   0.3333 0.1667 0.0833  plane waves:    1099
 k-point    38 :   0.4167 0.1667 0.0833  plane waves:    1109
 k-point    39 :   0.5000 0.1667 0.0833  plane waves:    1102
 k-point    40 :   0.2500 0.2500 0.0833  plane waves:    1098
 k-point    41 :   0.3333 0.2500 0.0833  plane waves:    1103
 k-point    42 :   0.4167 0.2500 0.0833  plane waves:    1101
 k-point    43 :   0.5000 0.2500 0.0833  plane waves:    1102
 k-point    44 :   0.3333 0.3333 0.0833  plane waves:    1100
 k-point    45 :   0.4167 0.3333 0.0833  plane waves:    1094
 k-point    46 :   0.5000 0.3333 0.0833  plane waves:    1096
 k-point    47 :   0.4167 0.4167 0.0833  plane waves:    1089
 k-point    48 :   0.5000 0.4167 0.0833  plane waves:    1084
 k-point    49 :   0.5000 0.5000 0.0833  plane waves:    1084
 k-point    50 :   0.1667 0.1667 0.1667  plane waves:    1093
 k-point    51 :   0.2500 0.1667 0.1667  plane waves:    1094
 k-point    52 :   0.3333 0.1667 0.1667  plane waves:    1103
 k-point    53 :   0.4167 0.1667 0.1667  plane waves:    1106
 k-point    54 :   0.5000 0.1667 0.1667  plane waves:    1090
 k-point    55 :   0.2500 0.2500 0.1667  plane waves:    1098
 k-point    56 :   0.3333 0.2500 0.1667  plane waves:    1100
 k-point    57 :   0.4167 0.2500 0.1667  plane waves:    1095
 k-point    58 :   0.5000 0.2500 0.1667  plane waves:    1104
 k-point    59 :   0.3333 0.3333 0.1667  plane waves:    1090
 k-point    60 :   0.4167 0.3333 0.1667  plane waves:    1088
[...]
 k-point    70 :   0.4167 0.3333 0.2500  plane waves:    1088
 k-point    71 :   0.5000 0.3333 0.2500  plane waves:    1082
 k-point    72 :   0.4167 0.4167 0.2500  plane waves:    1078
 k-point    73 :   0.5000 0.4167 0.2500  plane waves:    1084
 k-point    74 :   0.5000 0.5000 0.2500  plane waves:    1084
 k-point    75 :   0.3333 0.3333 0.3333  plane waves:    1088
 k-point    76 :   0.4167 0.3333 0.3333  plane waves:    1091
 k-point    77 :   0.5000 0.3333 0.3333  plane waves:    1088
 k-point    78 :   0.4167 0.4167 0.3333  plane waves:    1088
 k-point    79 :   0.5000 0.4167 0.3333  plane waves:    1088
 k-point    80 :   0.5000 0.5000 0.3333  plane waves:    1080
 k-point    81 :   0.4167 0.4167 0.4167  plane waves:    1082
 k-point    82 :   0.5000 0.4167 0.4167  plane waves:    1078
 k-point    83 :   0.5000 0.5000 0.4167  plane waves:    1080
 k-point    84 :   0.5000 0.5000 0.5000  plane waves:    1088

 maximum and minimum number of plane-waves per node :      1109     1045

 maximum number of plane-waves:      1109
 maximum index in each direction:
   IXMAX=    6   IYMAX=    6   IZMAX=    6
   IXMIN=   -6   IYMIN=   -6   IZMIN=   -6

 serial   3D FFT for wavefunctions
 parallel 3D FFT for charge:
    minimum data exchange during FFTs selected (reduces bandwidth)

 Broyden mixing: mesh for mixing (old mesh)
   NGX = 13   NGY = 13   NGZ = 13
  (NGX  = 40   NGY  = 40   NGZ  = 40)
  gives a total of   2197 points

 charge density for first step will be calculated from the start-wavefunctions

 Maximum index for augmentation-charges          293 (set IRDMAX)

 initial charge from wavefunction
 First call to EWALD:  gamma=   0.353
 Maximum number of real-space cells 3x 3x 3
 Maximum number of reciprocal cells 3x 3x 3

--------------------------------------- Ionic step        1  -------------------------------------------

--------------------------------------- Iteration      1(   1)  ---------------------------------------

 eigenvalue-minimisations  :  5040
 total energy-change (2. order) :-0.3819860E+01  (-0.1280317E-05)
 number of electron      20.0000152 magnetization
 augmentation part       -3.7092174 magnetization

 Broyden mixing:
  rms(total) = 0.29067E-03    rms(broyden)= 0.29067E-03
  rms(prec ) = 0.66543E-03
  weight for this iteration     100.00

 Free energy of the ion-electron system (eV)
  alpha Z        PSCENC =        82.58458896
  Ewald energy   TEWEN  =     -1042.26374757
  -Hartree energ DENC   =      -242.72294680
  -exchange      EXHF   =         0.00000000
  -V(xc)+E(xc)   XCENC  =        48.87631145
  PAW double counting   =      1165.24871564    -1162.58211329
  entropy T*S    EENTRO =        -0.00391501
  eigenvalues    EBANDS =      -254.64938173
  atomic energy  EATOM  =      1401.69262872
  Solvation  Ediel_sol  =         0.00000000
  free energy    TOTEN  =        -3.81985963 eV

  energy without entropy =       -3.81594462  energy(sigma->0) =       -3.81790212

--------------------------------------- Iteration      1(   2)  ---------------------------------------

 eigenvalue-minimisations  :  4368
 total energy-change (2. order) : 0.6548935E-06  (-0.9649063E-07)
 number of electron      20.0000152 magnetization
 augmentation part       -3.7092174 magnetization

 Free energy of the ion-electron system (eV)
  alpha Z        PSCENC =        82.58458896
  Ewald energy   TEWEN  =     -1042.26374757
  -Hartree energ DENC   =      -242.71408660
  -exchange      EXHF   =         0.00000000
  -V(xc)+E(xc)   XCENC  =        48.87591179
  PAW double counting   =      1165.25197645    -1162.58624682
  entropy T*S    EENTRO =        -0.00391514
  eigenvalues    EBANDS =      -254.65696877
  atomic energy  EATOM  =      1401.69262872
  Solvation  Ediel_sol  =         0.00000000
  free energy    TOTEN  =        -3.81985897 eV

  energy without entropy =       -3.81594384  energy(sigma->0) =       -3.81790141

 average (electrostatic) potential at core
  the test charge radii are     1.2192
  (the norm of the test charge is              1.0000)
       1 -39.4735       2 -39.4735

 E-fermi :   1.6165     XC(G=0):  -7.3825     alpha+bet : -6.7160

 val. band max:        1.5987633132   @ k =   0.2500   0.1667   0.0833
 cond. band min:       1.6250508558   @ k =   0.3333   0.3333   0.2500
 fundamental gap:      0.0262875426
 Fermi energy:         1.6165490105

 k-point     1 :       0.0000    0.0000    0.0000
  band No.  band energies     occupation
      1     -27.2821      2.00000
      2     -27.2094      2.00000
      3     -12.5465      2.00000
      4     -12.5465      2.00000
      5     -12.5465      2.00000
      6     -12.2366      2.00000
      7     -12.2366      2.00000
      8     -12.2366      2.00000
      9      -1.1289      2.00000
     10       1.0843      2.00000
     11       1.0843      2.00000
     12       3.4375      0.00000
     13       3.4375      0.00000
     14       3.4375      0.00000
     15       4.8276      0.00000
     16       4.8276      0.00000
     17       5.9324      0.00000
     18       5.9324      0.00000
     19       5.9324      0.00000
     20       6.3070      0.00000
     21       6.3070      0.00000
     22       6.3070      0.00000
     23       8.5257      0.00000
     24       8.5257      0.00000
     25       8.5257      0.00000
     26       8.9570      0.00000
     27      12.4567      0.00000
     28      13.1122      0.00000
     29      13.1122      0.00000
     30      13.8331      0.00000
     31      13.8331      0.00000
     32      14.3718      0.00000
     33      14.3718      0.00000
     34      14.3718      0.00000
     35      17.4027      0.00000
     36      17.4027      0.00000
     37      17.4027      0.00000
     38      17.5975      0.00000
     39      19.1687      0.00000
     40      19.1687      0.00000
     41      19.1687      0.00000
     42      20.1129      0.00000
     43      20.1129      0.00000
     44      20.1129      0.00000
     45      20.4587      0.00000
     46      21.5639      0.00000
     47      21.5639      0.00000
     48      21.5639      0.00000

[...]

 k-point    84 :       0.5000    0.5000    0.5000
  band No.  band energies     occupation
      1     -27.2377      2.00000
      2     -27.2377      2.00000
      3     -12.4609      2.00000
      4     -12.4609      2.00000
      5     -12.4609      2.00000
      6     -12.4609      2.00000
      7     -12.4609      2.00000
      8     -12.4609      2.00000
      9       2.1302      0.00000
     10       2.1302      0.00000
     11       2.1302      0.00000
     12       2.1302      0.00000
     13       2.1302      0.00000
     14       2.1302      0.00000
     15       5.3718      0.00000
     16       5.3718      0.00000
     17       5.4678      0.00000
     18       5.4678      0.00000
     19       5.4678      0.00000
     20       5.4678      0.00000
     21       8.3389      0.00000
     22       8.3389      0.00000
     23       8.3389      0.00000
     24       8.3389      0.00000
     25       8.3389      0.00000
     26       8.3389      0.00000
     27      12.9020      0.00000
     28      12.9020      0.00000
     29      12.9020      0.00000
     30      12.9020      0.00000
     31      12.9020      0.00000
     32      12.9020      0.00000
     33      14.5156      0.00000
     34      14.5156      0.00000
     35      14.5156      0.00000
     36      14.5156      0.00000
     37      14.5156      0.00000
     38      14.5156      0.00000
     39      18.6584      0.00000
     40      18.6584      0.00000
     41      21.3083      0.00000
     42      21.3083      0.00000
     43      21.3083      0.00000
     44      21.3083      0.00000
     45      21.5578      0.00000
     46      21.5578      0.00000
     47      21.5578      0.00000
     48      21.5578      0.00000

 soft charge-density along one line, spin component           1
         0         1         2         3         4         5         6         7         8         9
 total charge-density along one line

------------------------ aborting loop because EDIFF is reached ----------------------------------------

  FORCE on cell =-STRESS in cart. coord.  units (eV):
  Direction    XX          YY          ZZ          XY          YZ          ZX
  Alpha Z    82.58459    82.58459    82.58459
  Ewald    -347.42122  -347.42122  -347.42122    -0.00000    -0.00000    -0.00000
  Hartree    80.89955    80.89955    80.89955    -0.00000    -0.00000    -0.00000
  E(xc)     -64.97653   -64.97653   -64.97653     0.00000    -0.00000    -0.00000
  Local      64.10202    64.10202    64.10202    -0.00000    -0.00000    -0.00000
  n-local   -73.48671   -77.44165   -83.25359     0.59613    -0.39206     0.16213
  augment   -19.05647   -19.05647   -19.05647     0.00000     0.00000     0.00000
  Kinetic   277.43744   278.90185   289.26713    -0.37463     2.33998     0.30560
  Fock        0.00000     0.00000     0.00000     0.00000     0.00000     0.00000
  Total      -0.05991    -0.05991    -0.05991     0.00000     0.00000     0.00000
  in kB      -0.75514    -0.75514    -0.75514     0.00000     0.00000     0.00000

 VOLUME and BASIS-vectors are now :
  energy-cutoff  :      243.34
  volume of cell :      127.11
      direct lattice vectors                 reciprocal lattice vectors
     5.027920000  0.000000000  0.000000000     0.198889402 -0.000000000  0.000000000
     0.000000000  5.027920000  0.000000000     0.000000000  0.198889402  0.000000000
     0.000000000  0.000000000  5.027920000    -0.000000000 -0.000000000  0.198889402

  length of vectors
     5.027920000  5.027920000  5.027920000     0.198889402  0.198889402  0.198889402

 FORCES acting on ions
    electron-ion (+dipol)            ewald-force                    non-local-force                 convergence-correction
   -.875E-14 -.495E-14 0.201E-14   -.379E-15 -.236E-14 -.174E-14   -.507E-26 -.410E-26 0.118E-26   0.495E-15 0.149E-14 0.838E-14
   0.742E-13 0.548E-12 0.158E-12   0.908E-15 0.182E-14 0.125E-14   -.280E-25 -.280E-25 -.653E-26   -.738E-14 -.743E-14 -.104E-13
   0.654E-13 0.543E-12 0.160E-12   0.529E-15 -.536E-15 -.492E-15   -.331E-25 -.321E-25 -.535E-26   -.688E-14 -.594E-14 -.203E-14

 POSITION                                       TOTAL-FORCE (eV/Angst)
      0.00000      0.00000      0.00000        -0.000000     -0.000000     -0.000000
      2.51396      2.51396      2.51396         0.000000      0.000000      0.000000
    total drift:                                0.000000      0.000000      0.000000

  FREE ENERGIE OF THE ION-ELECTRON SYSTEM (eV)
  free  energy   TOTEN  =        -3.81985897 eV

  energy  without entropy=       -3.81594384  energy(sigma->0) =       -3.81790141

 writing wavefunctions