 vasp.6.4.3 19Mar24 (build Jun 26 2024 13:02:28) complex

 executed on             LinuxIFC date 2025.08.08  18:26:28

 INCAR:
   ENCUT = 359.73990000000003
   IBRION = -1
   ISMEAR = 0
   ISYM = 2
   LCHARG = True
   LWAVE = True
   SIGMA = 0.05
   SYSTEM = Zn

 POTCAR:  PAW_PBE Zn 06Sep2000
|           W    W    AA    RRRRR   N    N  II  N    N   GGGG   !!!           |
|           W    W   A  A   R    R  NN   N  II  NN   N  G    G  !!!           |
|           W    W  A    A  R    R  N N  N  II  N N  N  G       !!!           |
|           W WW W  AAAAAA  RRRRR   N  N N  II  N  N N  G  GGG   !            |
|           WW  WW  A    A  R   R   N   NN  II  N   NN  G    G                |
|           W    W  A    A  R    R  N    N  II  N    N   GGGG   !!!           |
|     For optimal performance we recommend to set                             |
|       NCORE = 2 up to number-of-cores-per-socket                            |
|     This setting can greatly improve the performance of VASP for DFT.       |
|     The default, NCORE=1 might be grossly inefficient on modern             |
|     multi-core architectures or massively parallel machines. Do your        |
|     Unfortunately you need to use the default for GW and RPA                |
|     calculations (for HF NCORE is supported but not extensively tested      |
|     yet).                                                                   |

 POTCAR:  PAW_PBE Zn 06Sep2000
   VRHFIN =Zn: d10 p2

   TITEL  = PAW_PBE Zn 06Sep2000
   POMASS =   65.390; ZVAL   =   12.000    mass and valenz
   ENMAX  =  276.723; ENMIN  =  207.542 eV

PAW_PBE Zn 06Sep2000                    :

 POSCAR: Zn2
  positions in direct lattice

 exchange-correlation table for PE
   RHO(1)=    0.500       N(1)  =     2000
   RHO(2)=  100.500       N(2)  =     4000

 ion  position               nearest neighbor table
   1  0.000  0.000  0.000-   2 2.94   2 2.94   2 2.94   2 2.94   2 2.94   2 2.94
   2  0.333  0.333  0.500-   1 2.94   1 2.94   1 2.94   1 2.94   1 2.94   1 2.94

  LATTYP: Found a hexagonal cell.
 ALAT       =     2.6616900000
 C/A-ratio  =     1.8799972950

  Lattice vectors:

 A1 = (  -1.3308450000,  -2.3050911570,   0.0000000000)
 A2 = (   2.6616900000,   0.0000000000,   0.0000000000)
 A3 = (   0.0000000000,   0.0000000000,   5.0039700000)

Analysis of symmetry for initial positions (statically):
 Subroutine PRICEL returns:
 Original cell was already a primitive cell.

 Routine SETGRP: Setting up the symmetry group for a
 hexagonal supercell.

 Subroutine GETGRP returns: Found 24 space group operations
 (whereof 12 operations were pure point group operations)
 out of a pool of 24 trial point group operations.

The static configuration has the point symmetry D_3h.
 The point group associated with its full space group is D_6h.

Analysis of symmetry for dynamics (positions and initial velocities):
 Subroutine PRICEL returns:
 Original cell was already a primitive cell.

 Routine SETGRP: Setting up the symmetry group for a
 hexagonal supercell.

 Subroutine GETGRP returns: Found 24 space group operations
 (whereof 12 operations were pure point group operations)
 out of a pool of 24 trial point group operations.

The dynamic configuration has the point symmetry D_3h.
 The point group associated with its full space group is D_6h.

 Subroutine INISYM returns: Found 24 space group operations
 (whereof 12 operations are pure point group operations),
 and found     1 'primitive' translations

                                     Primitive cell

  volume of cell :      30.7015

  direct lattice vectors                    reciprocal lattice vectors
     2.661690000  0.000000000  0.000000000     0.375701152 -0.216911161  0.000000000
     1.330845000  2.305091157  0.000000000     0.000000000  0.433822323  0.000000000
     0.000000000  0.000000000  5.003970000    -0.000000000 -0.000000000  0.199841326

  length of vectors
     2.661690000  2.661690000  5.003970000     0.433822323  0.433822323  0.199841326

  position of ions in fractional coordinates (direct lattice)
     0.000000000  0.000000000  0.000000000
     0.333333333  0.333333333  0.500000000

  ion indices of the primitive-cell ions
   primitive index   ion index
                 1           1
                 2           2

 KPOINTS: Automatic kpoint scheme

Automatic generation of k-mesh.
 Grid dimensions read from file:
 generate k-points for:   12   12   12

 Generating k-lattice:

  Cartesian coordinates                     Fractional coordinates (reciprocal lattice)
     0.031308429 -0.018075930  0.000000000     0.083333333 -0.000000000  0.000000000
     0.000000000  0.036151860  0.000000000     0.000000000  0.083333333  0.000000000
    -0.000000000 -0.000000000  0.016653444    -0.000000000 -0.000000000  0.083333333

  Length of vectors
     0.036151860  0.036151860  0.016653444

  Shift w.r.t. Gamma in fractional coordinates (k-lattice)
     0.000000000  0.000000000  0.000000000

 Subroutine IBZKPT returns following result:

 Found    133 irreducible k-points:

 Following reciprocal coordinates:
            Coordinates               Weight
  0.000000  0.000000  0.000000      1.000000
  0.083333 -0.000000  0.000000      6.000000
  0.166667 -0.000000  0.000000      6.000000
  0.250000 -0.000000  0.000000      6.000000
  0.333333 -0.000000  0.000000      6.000000
  0.416667  0.000000  0.000000      6.000000
  0.500000 -0.000000  0.000000      3.000000
  0.166667  0.083333  0.000000      6.000000
  0.250000  0.083333  0.000000     12.000000
  0.333333  0.083333  0.000000     12.000000
  0.416667  0.083333  0.000000     12.000000
  0.500000  0.083333  0.000000     12.000000
  0.333333  0.166667  0.000000      6.000000
  0.416667  0.166667  0.000000     12.000000
  0.500000  0.166667  0.000000     12.000000
 -0.416667  0.166667  0.000000      6.000000
  0.500000  0.250000  0.000000      6.000000
 -0.416667  0.250000  0.000000     12.000000
 -0.333333  0.333333  0.000000      2.000000
 -0.000000  0.000000  0.083333      2.000000
  0.083333 -0.000000  0.083333     12.000000
  0.166667 -0.000000  0.083333     12.000000
  0.250000  0.000000  0.083333     12.000000
  0.333333 -0.000000  0.083333     12.000000
  0.416667  0.000000  0.083333     12.000000
  0.500000  0.000000  0.083333      6.000000
  0.166667  0.083333  0.083333     12.000000
  0.250000  0.083333  0.083333     24.000000
  0.333333  0.083333  0.083333     24.000000
  0.416667  0.083333  0.083333     24.000000
  0.500000  0.083333  0.083333     24.000000
  0.333333  0.166667  0.083333     12.000000
  0.416667  0.166667  0.083333     24.000000
  0.500000  0.166667  0.083333     24.000000
 -0.416667  0.166667  0.083333     12.000000
  0.500000  0.250000  0.083333     12.000000
 -0.416667  0.250000  0.083333     24.000000
 -0.333333  0.333333  0.083333      4.000000
 -0.000000 -0.000000  0.166667      2.000000
  0.083333  0.000000  0.166667     12.000000
  0.166667 -0.000000  0.166667     12.000000
  0.250000  0.000000  0.166667     12.000000
  0.333333 -0.000000  0.166667     12.000000
  0.416667  0.000000  0.166667     12.000000
  0.500000  0.000000  0.166667      6.000000
  0.166667  0.083333  0.166667     12.000000
  0.250000  0.083333  0.166667     24.000000
  0.333333  0.083333  0.166667     24.000000
  0.416667  0.083333  0.166667     24.000000
  0.500000  0.083333  0.166667     24.000000
  0.333333  0.166667  0.166667     12.000000
  0.416667  0.166667  0.166667     24.000000
  0.500000  0.166667  0.166667     24.000000
 -0.416667  0.166667  0.166667     12.000000
  0.500000  0.250000  0.166667     12.000000
 -0.416667  0.250000  0.166667     24.000000
 -0.333333  0.333333  0.166667      4.000000
 -0.000000  0.000000  0.250000      2.000000
  0.083333 -0.000000  0.250000     12.000000
  0.166667  0.000000  0.250000     12.000000
[...]
  0.333333  0.000000  0.500000      6.000000
  0.416667  0.000000  0.500000      6.000000
  0.500000  0.000000  0.500000      3.000000
  0.166667  0.083333  0.500000      6.000000
  0.250000  0.083333  0.500000     12.000000
  0.333333  0.083333  0.500000     12.000000
  0.416667  0.083333  0.500000     12.000000
  0.500000  0.083333  0.500000     12.000000
  0.333333  0.166667  0.500000      6.000000
  0.416667  0.166667  0.500000     12.000000
  0.500000  0.166667  0.500000     12.000000
 -0.416667  0.166667  0.500000      6.000000
  0.500000  0.250000  0.500000      6.000000
 -0.416667  0.250000  0.500000     12.000000
 -0.333333  0.333333  0.500000      2.000000

 Following cartesian coordinates:
            Coordinates               Weight
  0.000000  0.000000  0.000000      1.000000
  0.031308 -0.018076  0.000000      6.000000
  0.062617 -0.036152  0.000000      6.000000
  0.093925 -0.054228  0.000000      6.000000
  0.125234 -0.072304  0.000000      6.000000
  0.156542 -0.090380  0.000000      6.000000
  0.187851 -0.108456  0.000000      3.000000
  0.062617  0.000000  0.000000      6.000000
  0.093925 -0.018076  0.000000     12.000000
  0.125234 -0.036152  0.000000     12.000000
  0.156542 -0.054228  0.000000     12.000000
  0.187851 -0.072304  0.000000     12.000000
  0.125234 -0.000000  0.000000      6.000000
  0.156542 -0.018076  0.000000     12.000000
  0.187851 -0.036152  0.000000     12.000000
 -0.156542  0.162683  0.000000      6.000000
  0.187851 -0.000000  0.000000      6.000000
 -0.156542  0.198835  0.000000     12.000000
 -0.125234  0.216911  0.000000      2.000000
 -0.000000 -0.000000  0.016653      2.000000
  0.031308 -0.018076  0.016653     12.000000
  0.062617 -0.036152  0.016653     12.000000
  0.093925 -0.054228  0.016653     12.000000
  0.125234 -0.072304  0.016653     12.000000
  0.156542 -0.090380  0.016653     12.000000
  0.187851 -0.108456  0.016653      6.000000
  0.062617  0.000000  0.016653     12.000000
  0.093925 -0.018076  0.016653     24.000000
  0.125234 -0.036152  0.016653     24.000000
  0.156542 -0.054228  0.016653     24.000000
  0.187851 -0.072304  0.016653     24.000000
  0.125234 -0.000000  0.016653     12.000000
  0.156542 -0.018076  0.016653     24.000000
  0.187851 -0.036152  0.016653     24.000000
 -0.156542  0.162683  0.016653     12.000000
  0.187851 -0.000000  0.016653     12.000000
 -0.156542  0.198835  0.016653     24.000000
 -0.125234  0.216911  0.016653      4.000000
 -0.000000 -0.000000  0.033307      2.000000
  0.031308 -0.018076  0.033307     12.000000
  0.062617 -0.036152  0.033307     12.000000
  0.093925 -0.054228  0.033307     12.000000
  0.125234 -0.072304  0.033307     12.000000
  0.156542 -0.090380  0.033307     12.000000
  0.187851 -0.108456  0.033307      6.000000
  0.062617  0.000000  0.033307     12.000000
  0.093925 -0.018076  0.033307     24.000000
  0.125234 -0.036152  0.033307     24.000000
  0.156542 -0.054228  0.033307     24.000000
  0.187851 -0.072304  0.033307     24.000000
  0.125234 -0.000000  0.033307     12.000000
  0.156542 -0.018076  0.033307     24.000000
  0.187851 -0.036152  0.033307     24.000000
 -0.156542  0.162683  0.033307     12.000000
  0.187851 -0.000000  0.033307     12.000000
 -0.156542  0.198835  0.033307     24.000000
 -0.125234  0.216911  0.033307      4.000000
 -0.000000 -0.000000  0.049960      2.000000
[...]
  -0.41666667  0.16666667  0.08333333       0.007
   0.50000000  0.25000000  0.08333333       0.007
  -0.41666667  0.25000000  0.08333333       0.014
  -0.33333333  0.33333333  0.08333333       0.002
  -0.00000000 -0.00000000  0.16666667       0.001
   0.08333333  0.00000000  0.16666667       0.007
   0.16666667 -0.00000000  0.16666667       0.007
   0.25000000  0.00000000  0.16666667       0.007
   0.33333333 -0.00000000  0.16666667       0.007
   0.41666667  0.00000000  0.16666667       0.007
   0.50000000  0.00000000  0.16666667       0.003
   0.16666667  0.08333333  0.16666667       0.007
   0.25000000  0.08333333  0.16666667       0.014
   0.33333333  0.08333333  0.16666667       0.014
   0.41666667  0.08333333  0.16666667       0.014
   0.50000000  0.08333333  0.16666667       0.014
   0.33333333  0.16666667  0.16666667       0.007
   0.41666667  0.16666667  0.16666667       0.014
   0.50000000  0.16666667  0.16666667       0.014
  -0.41666667  0.16666667  0.16666667       0.007
   0.50000000  0.25000000  0.16666667       0.007
  -0.41666667  0.25000000  0.16666667       0.014
  -0.33333333  0.33333333  0.16666667       0.002
  -0.00000000  0.00000000  0.25000000       0.001
   0.08333333 -0.00000000  0.25000000       0.007
   0.16666667  0.00000000  0.25000000       0.007
[...]
   0.33333333  0.00000000  0.50000000       0.003
   0.41666667  0.00000000  0.50000000       0.003
   0.50000000  0.00000000  0.50000000       0.002
   0.16666667  0.08333333  0.50000000       0.003
   0.25000000  0.08333333  0.50000000       0.007
   0.33333333  0.08333333  0.50000000       0.007
   0.41666667  0.08333333  0.50000000       0.007
   0.50000000  0.08333333  0.50000000       0.007
   0.33333333  0.16666667  0.50000000       0.003
   0.41666667  0.16666667  0.50000000       0.007
   0.50000000  0.16666667  0.50000000       0.007
  -0.41666667  0.16666667  0.50000000       0.003
   0.50000000  0.25000000  0.50000000       0.003
  -0.41666667  0.25000000  0.50000000       0.007
  -0.33333333  0.33333333  0.50000000       0.001

 position of ions in fractional coordinates (direct lattice)
   0.00000000  0.00000000  0.00000000
   0.33333333  0.33333333  0.50000000

 position of ions in cartesian coordinates  (Angst):
   0.00000000  0.00000000  0.00000000
   1.33084500  0.76836372  2.50198500

 k-point     1 :   0.0000 0.0000 0.0000  plane waves:     465
 k-point     2 :   0.0833-0.0000 0.0000  plane waves:     467
 k-point     3 :   0.1667-0.0000 0.0000  plane waves:     463
 k-point     4 :   0.2500-0.0000 0.0000  plane waves:     475
 k-point     5 :   0.3333-0.0000 0.0000  plane waves:     481
 k-point     6 :   0.4167 0.0000 0.0000  plane waves:     481
 k-point     7 :   0.5000-0.0000 0.0000  plane waves:     488
 k-point     8 :   0.1667 0.0833 0.0000  plane waves:     464
 k-point     9 :   0.2500 0.0833 0.0000  plane waves:     474
 k-point    10 :   0.3333 0.0833 0.0000  plane waves:     472
 k-point    11 :   0.4167 0.0833 0.0000  plane waves:     478
 k-point    12 :   0.5000 0.0833 0.0000  plane waves:     480
 k-point    13 :   0.3333 0.1667 0.0000  plane waves:     468
 k-point    14 :   0.4167 0.1667 0.0000  plane waves:     473
 k-point    15 :   0.5000 0.1667 0.0000  plane waves:     479
 k-point    16 :  -0.4167 0.1667 0.0000  plane waves:     484
 k-point    17 :   0.5000 0.2500 0.0000  plane waves:     482
 k-point    18 :  -0.4167 0.2500 0.0000  plane waves:     481
 k-point    19 :  -0.3333 0.3333 0.0000  plane waves:     474
 k-point    20 :  -0.0000 0.0000 0.0833  plane waves:     465
 k-point    21 :   0.0833-0.0000 0.0833  plane waves:     467
 k-point    22 :   0.1667-0.0000 0.0833  plane waves:     467
 k-point    23 :   0.2500 0.0000 0.0833  plane waves:     473
 k-point    24 :   0.3333-0.0000 0.0833  plane waves:     479
 k-point    25 :   0.4167 0.0000 0.0833  plane waves:     480
 k-point    26 :   0.5000 0.0000 0.0833  plane waves:     482
 k-point    27 :   0.1667 0.0833 0.0833  plane waves:     467
 k-point    28 :   0.2500 0.0833 0.0833  plane waves:     472
 k-point    29 :   0.3333 0.0833 0.0833  plane waves:     472
 k-point    30 :   0.4167 0.0833 0.0833  plane waves:     481
 k-point    31 :   0.5000 0.0833 0.0833  plane waves:     477
 k-point    32 :   0.3333 0.1667 0.0833  plane waves:     469
 k-point    33 :   0.4167 0.1667 0.0833  plane waves:     476
 k-point    34 :   0.5000 0.1667 0.0833  plane waves:     479
 k-point    35 :  -0.4167 0.1667 0.0833  plane waves:     481
 k-point    36 :   0.5000 0.2500 0.0833  plane waves:     481
 k-point    37 :  -0.4167 0.2500 0.0833  plane waves:     478
 k-point    38 :  -0.3333 0.3333 0.0833  plane waves:     486
 k-point    39 :  -0.0000-0.0000 0.1667  plane waves:     465
 k-point    40 :   0.0833 0.0000 0.1667  plane waves:     466
 k-point    41 :   0.1667-0.0000 0.1667  plane waves:     468
 k-point    42 :   0.2500 0.0000 0.1667  plane waves:     473
 k-point    43 :   0.3333-0.0000 0.1667  plane waves:     478
 k-point    44 :   0.4167 0.0000 0.1667  plane waves:     479
 k-point    45 :   0.5000 0.0000 0.1667  plane waves:     482
 k-point    46 :   0.1667 0.0833 0.1667  plane waves:     469
 k-point    47 :   0.2500 0.0833 0.1667  plane waves:     473
 k-point    48 :   0.3333 0.0833 0.1667  plane waves:     471
 k-point    49 :   0.4167 0.0833 0.1667  plane waves:     477
 k-point    50 :   0.5000 0.0833 0.1667  plane waves:     476
 k-point    51 :   0.3333 0.1667 0.1667  plane waves:     471
 k-point    52 :   0.4167 0.1667 0.1667  plane waves:     477
 k-point    53 :   0.5000 0.1667 0.1667  plane waves:     477
 k-point    54 :  -0.4167 0.1667 0.1667  plane waves:     481
 k-point    55 :   0.5000 0.2500 0.1667  plane waves:     478
 k-point    56 :  -0.4167 0.2500 0.1667  plane waves:     479
 k-point    57 :  -0.3333 0.3333 0.1667  plane waves:     489
 k-point    58 :  -0.0000 0.0000 0.2500  plane waves:     459
 k-point    59 :   0.0833-0.0000 0.2500  plane waves:     468
 k-point    60 :   0.1667 0.0000 0.2500  plane waves:     474
[...]
 k-point   119 :   0.3333 0.0000 0.5000  plane waves:     472
 k-point   120 :   0.4167 0.0000 0.5000  plane waves:     482
 k-point   121 :   0.5000 0.0000 0.5000  plane waves:     484
 k-point   122 :   0.1667 0.0833 0.5000  plane waves:     470
 k-point   123 :   0.2500 0.0833 0.5000  plane waves:     474
 k-point   124 :   0.3333 0.0833 0.5000  plane waves:     476
 k-point   125 :   0.4167 0.0833 0.5000  plane waves:     478
 k-point   126 :   0.5000 0.0833 0.5000  plane waves:     480
 k-point   127 :   0.3333 0.1667 0.5000  plane waves:     478
 k-point   128 :   0.4167 0.1667 0.5000  plane waves:     476
 k-point   129 :   0.5000 0.1667 0.5000  plane waves:     480
 k-point   130 :  -0.4167 0.1667 0.5000  plane waves:     480
 k-point   131 :   0.5000 0.2500 0.5000  plane waves:     470
 k-point   132 :  -0.4167 0.2500 0.5000  plane waves:     478
 k-point   133 :  -0.3333 0.3333 0.5000  plane waves:     468

 maximum and minimum number of plane-waves per node :       489      448

 maximum number of plane-waves:       489
 maximum index in each direction:
   IXMAX=    4   IYMAX=    4   IZMAX=    7
   IXMIN=   -4   IYMIN=   -4   IZMIN=   -8

 serial   3D FFT for wavefunctions
 parallel 3D FFT for charge:
    minimum data exchange during FFTs selected (reduces bandwidth)

 Broyden mixing: mesh for mixing (old mesh)
   NGX =  9   NGY =  9   NGZ = 15
  (NGX  = 24   NGY  = 24   NGZ  = 48)
  gives a total of   1215 points

 charge density for first step will be calculated from the start-wavefunctions

 Maximum index for augmentation-charges          251 (set IRDMAX)

 initial charge from wavefunction
 First call to EWALD:  gamma=   0.566
 Maximum number of real-space cells 4x 4x 2
 Maximum number of reciprocal cells 2x 2x 4

--------------------------------------- Ionic step        1  -------------------------------------------

--------------------------------------- Iteration      1(   1)  ---------------------------------------

 eigenvalue-minimisations  :  6672
 total energy-change (2. order) :-0.2209999E+01  (-0.1129283E-04)
 number of electron      23.9999958 magnetization
 augmentation part       15.9564043 magnetization

 Broyden mixing:
  rms(total) = 0.18994E-02    rms(broyden)= 0.18963E-02
  rms(prec ) = 0.28144E-02
  weight for this iteration     100.00

 Free energy of the ion-electron system (eV)
  alpha Z        PSCENC =       206.21415897
  Ewald energy   TEWEN  =     -2401.99486669
  -Hartree energ DENC   =      -967.53549353
  -exchange      EXHF   =         0.00000000
  -V(xc)+E(xc)   XCENC  =       113.40917198
  PAW double counting   =      3034.85187868    -3390.51555050
  entropy T*S    EENTRO =        -0.00082309
  eigenvalues    EBANDS =       -94.26541391
  atomic energy  EATOM  =      3497.62693919
  Solvation  Ediel_sol  =         0.00000000
  free energy    TOTEN  =        -2.20999889 eV

  energy without entropy =       -2.20917581  energy(sigma->0) =       -2.20958735

--------------------------------------- Iteration      1(   2)  ---------------------------------------

 eigenvalue-minimisations  :  6576
 total energy-change (2. order) : 0.7565763E-05  (-0.5554108E-05)
 number of electron      23.9999958 magnetization
 augmentation part       15.9564043 magnetization

 Free energy of the ion-electron system (eV)
  alpha Z        PSCENC =       206.21415897
  Ewald energy   TEWEN  =     -2401.99486669
  -Hartree energ DENC   =      -967.45446243
  -exchange      EXHF   =         0.00000000
  -V(xc)+E(xc)   XCENC  =       113.40526124
  PAW double counting   =      3034.80203127    -3390.41779669
  entropy T*S    EENTRO =        -0.00082323
  eigenvalues    EBANDS =       -94.39043297
  atomic energy  EATOM  =      3497.62693919
  Solvation  Ediel_sol  =         0.00000000
  free energy    TOTEN  =        -2.20999133 eV

  energy without entropy =       -2.20916810  energy(sigma->0) =       -2.20957971

 average (electrostatic) potential at core
  the test charge radii are     0.9521
  (the norm of the test charge is              1.0000)
       1 -36.9511       2 -36.9511

 E-fermi :   3.2598     XC(G=0): -11.5005     alpha+bet : -7.3748

 val. band max:        3.2194701889   @ k =   0.3333   0.1667   0.0833
 cond. band min:       3.2677981764   @ k =  -0.3333   0.3333   0.0000
 fundamental gap:      0.0483279875
 Fermi energy:         3.2598415151

 k-point     1 :       0.0000    0.0000    0.0000
  band No.  band energies     occupation
      1      -7.2861      2.00000
      2      -5.5384      2.00000
      3      -4.8499      2.00000
      4      -4.6078      2.00000
      5      -4.6077      2.00000
      6      -4.5618      2.00000
      7      -4.5617      2.00000
      8      -4.2227      2.00000
      9      -4.2227      2.00000
     10      -4.0298      2.00000
     11      -4.0298      2.00000
     12      -0.5962      2.00000
     13      -0.1415      2.00000
     14      16.1586      0.00000
     15      19.8660      0.00000
     16      20.6107      0.00000
     17      20.6108      0.00000
     18      22.2320      0.00000
     19      22.2321      0.00000
     20      22.3639      0.00000
     21      23.6052      0.00000
     22      26.9266      0.00000
     23      26.9267      0.00000
     24      27.1597      0.00000
     25      28.2685      0.00000
     26      28.2690      0.00000
     27      28.4126      0.00000
     28      28.4127      0.00000
     29      28.8852      0.00000
     30      28.8852      0.00000
     31      28.9613      0.00000
     32      30.2837      0.00000
     33      36.0323      0.00000
     34      44.7245      0.00000
     35      44.7246      0.00000
     36      44.9322      0.00000
     37      45.0556      0.00000
     38      45.0556      0.00000
     39      45.9930      0.00000
     40      45.9933      0.00000
     41      46.2069      0.00000
     42      46.7826      0.00000
     43      46.7827      0.00000
     44      47.2392      0.00000
     45      48.0435      0.00000
     46      50.0375      0.00000
     47      58.3442      0.00000
     48      70.5710      0.00000

[...]

 k-point   133 :      -0.3333    0.3333    0.5000
  band No.  band energies     occupation
      1      -4.8543      2.00000
      2      -4.8543      2.00000
      3      -4.7484      2.00000
      4      -4.7484      2.00000
      5      -4.5793      2.00000
      6      -4.5793      2.00000
      7      -4.4102      2.00000
      8      -4.4102      2.00000
      9      -4.0443      2.00000
     10      -4.0443      2.00000
     11       4.0569      0.00000
     12       4.0569      0.00000
     13       4.8830      0.00000
     14       4.8830      0.00000
     15       5.2284      0.00000
     16       5.2284      0.00000
     17      14.8412      0.00000
     18      14.8412      0.00000
     19      17.4707      0.00000
     20      17.4707      0.00000
     21      19.1249      0.00000
     22      19.1249      0.00000
     23      32.9310      0.00000
     24      32.9310      0.00000
     25      32.9957      0.00000
     26      32.9957      0.00000
     27      34.4090      0.00000
     28      34.4090      0.00000
     29      39.5242      0.00000
     30      39.5242      0.00000
     31      40.3835      0.00000
     32      40.3835      0.00000
     33      41.9933      0.00000
     34      41.9933      0.00000
     35      44.9150      0.00000
     36      44.9150      0.00000
     37      45.1515      0.00000
     38      45.1515      0.00000
     39      47.7241      0.00000
     40      47.7241      0.00000
     41      57.9094      0.00000
     42      57.9094      0.00000
     43      60.5530      0.00000
     44      60.5530      0.00000
     45      60.7446      0.00000
     46      60.7446      0.00000
     47      61.7074      0.00000
     48      61.7074      0.00000

 soft charge-density along one line, spin component           1
         0         1         2         3         4         5         6         7         8         9
 total charge-density along one line

------------------------ aborting loop because EDIFF is reached ----------------------------------------

  FORCE on cell =-STRESS in cart. coord.  units (eV):
  Direction    XX          YY          ZZ          XY          YZ          ZX
  Alpha Z   206.21416   206.21416   206.21416
  Ewald    -741.13981  -741.13981  -919.71554    -0.00000     0.00000     0.00000
  Hartree   359.55857   359.55857   248.35361     0.00000    -0.00000    -0.00000
  E(xc)    -144.04699  -144.04686  -144.22512    -0.00012    -0.00001    -0.00002
  Local     161.80142   161.79741   450.20275     0.00348    -0.00009    -0.00015
  n-local   -64.76064   -66.33574   -66.06775    -0.13693     0.17337    -0.45823
  augment    82.28638    82.29069    82.86135    -0.00373     0.00010     0.00017
  Kinetic   151.94267   129.12935   142.60712    -8.27854     1.09654    -3.26233
  Fock        0.00000     0.00000     0.00000     0.00000     0.00000     0.00000
  Total      -0.33824    -0.33824     0.23059     0.00000    -0.00000     0.00000
  in kB     -17.65148   -17.65148    12.03322     0.00000    -0.00000     0.00000

 VOLUME and BASIS-vectors are now :
  energy-cutoff  :      359.74
  volume of cell :       30.70
      direct lattice vectors                 reciprocal lattice vectors
     2.661690000  0.000000000  0.000000000     0.375701152 -0.216911161  0.000000000
     1.330845000  2.305091157  0.000000000     0.000000000  0.433822323  0.000000000
     0.000000000  0.000000000  5.003970000    -0.000000000 -0.000000000  0.199841326

  length of vectors
     2.661690000  2.661690000  5.003970000     0.433822323  0.433822323  0.199841326

 FORCES acting on ions
    electron-ion (+dipol)            ewald-force                    non-local-force                 convergence-correction
   -.382E-05 -.221E-05 -.252E-05   0.699E-12 0.398E-12 -.464E-13   0.600E-17 -.519E-17 -.540E-18   -.714E-08 -.412E-08 -.747E-12
   0.382E-05 0.221E-05 0.252E-05   -.706E-12 -.402E-12 0.463E-13   -.202E-17 0.303E-18 0.552E-18   0.714E-08 0.412E-08 0.822E-12
   -.961E-13 0.717E-12 -.196E-11   -.687E-14 -.335E-14 -.191E-16   0.398E-17 -.489E-17 0.121E-19   -.840E-14 0.500E-13 0.755E-13

 POSITION                                       TOTAL-FORCE (eV/Angst)
      0.00000      0.00000      0.00000         0.000000      0.000000     -0.000000
      1.33085      0.76836      2.50198        -0.000000     -0.000000      0.000000
    total drift:                               -0.000000      0.000000     -0.000000

  FREE ENERGIE OF THE ION-ELECTRON SYSTEM (eV)
  free  energy   TOTEN  =        -2.20999133 eV

  energy  without entropy=       -2.20916810  energy(sigma->0) =       -2.20957971

 writing wavefunctions