 vasp.6.4.3 19Mar24 (build Jun 26 2024 13:02:28) complex

 executed on             LinuxIFC date 2025.08.08  18:17:51

 INCAR:
   ENCUT = 345.3853
   IBRION = -1
   ISMEAR = 0
   ISPIN = 2
   ISYM = 2
   LCHARG = True
   LWAVE = True
   MAGMOM = 1*3.0 1*-3.0
   SIGMA = 0.05
   SYSTEM = Cr

 POTCAR:  PAW_PBE Cr_pv 02Aug2007
|           W    W    AA    RRRRR   N    N  II  N    N   GGGG   !!!           |
|           W    W   A  A   R    R  NN   N  II  NN   N  G    G  !!!           |
|           W    W  A    A  R    R  N N  N  II  N N  N  G       !!!           |
|           W WW W  AAAAAA  RRRRR   N  N N  II  N  N N  G  GGG   !            |
|           WW  WW  A    A  R   R   N   NN  II  N   NN  G    G                |
|           W    W  A    A  R    R  N    N  II  N    N   GGGG   !!!           |
|     For optimal performance we recommend to set                             |
|       NCORE = 2 up to number-of-cores-per-socket                            |
|     This setting can greatly improve the performance of VASP for DFT.       |
|     The default, NCORE=1 might be grossly inefficient on modern             |
|     multi-core architectures or massively parallel machines. Do your        |
|     Unfortunately you need to use the default for GW and RPA                |
|     calculations (for HF NCORE is supported but not extensively tested      |
|     yet).                                                                   |

 POTCAR:  PAW_PBE Cr_pv 02Aug2007
   VRHFIN =Cr : p6d5s1

   TITEL  = PAW_PBE Cr_pv 02Aug2007
   POMASS =   51.996; ZVAL   =   12.000    mass and valenz
   ENMAX  =  265.681; ENMIN  =  199.261 eV

PAW_PBE Cr_pv 02Aug2007                 :

 POSCAR: Cr2
  positions in direct lattice

 exchange-correlation table for PE
   RHO(1)=    0.500       N(1)  =     2000
   RHO(2)=  100.500       N(2)  =     4000

 ion  position               nearest neighbor table
   1  0.000  0.000  0.000-   2 2.49   2 2.49   2 2.49   2 2.49   2 2.49   2 2.49   2 2.49   2 2.49

   2  0.500  0.500  0.500-   1 2.49   1 2.49   1 2.49   1 2.49   1 2.49   1 2.49   1 2.49   1 2.49

  LATTYP: Found a simple cubic cell.
 ALAT       =     2.8710000000

  Lattice vectors:

 A1 = (   2.8710000000,   0.0000000000,   0.0000000000)
 A2 = (   0.0000000000,   2.8710000000,   0.0000000000)
 A3 = (   0.0000000000,   0.0000000000,   2.8710000000)

Analysis of symmetry for initial positions (statically):
 Subroutine PRICEL returns following result:

  LATTYP: Found a body centered cubic cell.
 ALAT       =     2.8710000000

[...]

   2 primitive cells build up your supercell.

 Routine SETGRP: Setting up the symmetry group for a
 simple cubic supercell.

 Subroutine GETGRP returns: Found 48 space group operations
 (whereof 48 operations were pure point group operations)
 out of a pool of 48 trial point group operations.

The static configuration has the point symmetry O_h .

Analysis of symmetry for dynamics (positions and initial velocities):
 Subroutine PRICEL returns following result:

[...]

The dynamic configuration has the point symmetry O_h .

Analysis of structural, dynamic, and magnetic symmetry:
 Subroutine PRICEL returns following result:

  LATTYP: Found a body centered cubic cell.
 ALAT       =     2.8710000000

  Lattice vectors:

 A1 = (   1.4355000000,   1.4355000000,  -1.4355000000)
 A2 = (  -1.4355000000,   1.4355000000,   1.4355000000)
 A3 = (   1.4355000000,  -1.4355000000,   1.4355000000)

   2 primitive cells build up your supercell.

 Routine SETGRP: Setting up the symmetry group for a
 simple cubic supercell.

 Subroutine GETGRP returns: Found 48 space group operations
 (whereof 48 operations were pure point group operations)
 out of a pool of 48 trial point group operations.

The overall configuration has the point symmetry O_h .

 Subroutine INISYM returns: Found 48 space group operations
 (whereof 48 operations are pure point group operations),
 and found     2 'primitive' translations

                                     Primitive cell

  volume of cell :      11.8323

  direct lattice vectors                    reciprocal lattice vectors
     1.435500000  1.435500000 -1.435500000     0.348310693  0.348310693  0.000000000
    -1.435500000  1.435500000  1.435500000    -0.000000000  0.348310693  0.348310693
     1.435500000 -1.435500000  1.435500000     0.348310693 -0.000000000  0.348310693

  length of vectors
     2.486358934  2.486358934  2.486358934     0.492585706  0.492585706  0.492585706

  position of ions in fractional coordinates (direct lattice)
     0.000000000  0.000000000  0.000000000

  ion indices of the primitive-cell ions
   primitive index   ion index
                 1           1

 KPOINTS: Automatic kpoint scheme

Automatic generation of k-mesh.
 Grid dimensions read from file:
 generate k-points for:    8    8    8

 Generating k-lattice:

  Cartesian coordinates                     Fractional coordinates (reciprocal lattice)
     0.043538837 -0.000000000  0.000000000     0.125000000 -0.000000000  0.000000000
     0.000000000  0.043538837  0.000000000     0.000000000  0.125000000  0.000000000
    -0.000000000 -0.000000000  0.043538837     0.000000000  0.000000000  0.125000000

  Length of vectors
     0.043538837  0.043538837  0.043538837

  Shift w.r.t. Gamma in fractional coordinates (k-lattice)
     0.000000000  0.000000000  0.000000000

 Subroutine IBZKPT returns following result:

 Found     35 irreducible k-points:

 Following reciprocal coordinates:
            Coordinates               Weight
  0.000000  0.000000  0.000000      1.000000
  0.125000  0.000000  0.000000      6.000000
  0.250000  0.000000  0.000000      6.000000
  0.375000  0.000000  0.000000      6.000000
  0.500000  0.000000  0.000000      3.000000
  0.125000  0.125000  0.000000     12.000000
  0.250000  0.125000  0.000000     24.000000
  0.375000  0.125000  0.000000     24.000000
  0.500000  0.125000  0.000000     12.000000
  0.250000  0.250000  0.000000     12.000000
  0.375000  0.250000  0.000000     24.000000
  0.500000  0.250000  0.000000     12.000000
  0.375000  0.375000  0.000000     12.000000
  0.500000  0.375000  0.000000     12.000000
  0.500000  0.500000  0.000000      3.000000
  0.125000  0.125000  0.125000      8.000000
  0.250000  0.125000  0.125000     24.000000
  0.375000  0.125000  0.125000     24.000000
  0.500000  0.125000  0.125000     12.000000
  0.250000  0.250000  0.125000     24.000000
  0.375000  0.250000  0.125000     48.000000
  0.500000  0.250000  0.125000     24.000000
  0.375000  0.375000  0.125000     24.000000
  0.500000  0.375000  0.125000     24.000000
  0.500000  0.500000  0.125000      6.000000
  0.250000  0.250000  0.250000      8.000000
  0.375000  0.250000  0.250000     24.000000
  0.500000  0.250000  0.250000     12.000000
  0.375000  0.375000  0.250000     24.000000
  0.500000  0.375000  0.250000     24.000000
  0.500000  0.500000  0.250000      6.000000
  0.375000  0.375000  0.375000      8.000000
  0.500000  0.375000  0.375000     12.000000
  0.500000  0.500000  0.375000      6.000000
  0.500000  0.500000  0.500000      1.000000

 Following cartesian coordinates:
            Coordinates               Weight
  0.000000  0.000000  0.000000      1.000000
  0.043539 -0.000000  0.000000      6.000000
  0.087078 -0.000000  0.000000      6.000000
  0.130617 -0.000000  0.000000      6.000000
  0.174155 -0.000000  0.000000      3.000000
  0.043539  0.043539  0.000000     12.000000
  0.087078  0.043539  0.000000     24.000000
  0.130617  0.043539  0.000000     24.000000
  0.174155  0.043539  0.000000     12.000000
  0.087078  0.087078  0.000000     12.000000
  0.130617  0.087078  0.000000     24.000000
  0.174155  0.087078  0.000000     12.000000
  0.130617  0.130617  0.000000     12.000000
  0.174155  0.130617  0.000000     12.000000
  0.174155  0.174155  0.000000      3.000000
  0.043539  0.043539  0.043539      8.000000
  0.087078  0.043539  0.043539     24.000000
  0.130617  0.043539  0.043539     24.000000
  0.174155  0.043539  0.043539     12.000000
  0.087078  0.087078  0.043539     24.000000
  0.130617  0.087078  0.043539     48.000000
  0.174155  0.087078  0.043539     24.000000
  0.130617  0.130617  0.043539     24.000000
  0.174155  0.130617  0.043539     24.000000
  0.174155  0.174155  0.043539      6.000000
  0.087078  0.087078  0.087078      8.000000
  0.130617  0.087078  0.087078     24.000000
  0.174155  0.087078  0.087078     12.000000
  0.130617  0.130617  0.087078     24.000000
  0.174155  0.130617  0.087078     24.000000
  0.174155  0.174155  0.087078      6.000000
  0.130617  0.130617  0.130617      8.000000
  0.174155  0.130617  0.130617     12.000000
  0.174155  0.174155  0.130617      6.000000
  0.174155  0.174155  0.174155      1.000000

 Subroutine IBZKPT_HF returns following result:

 Found    512 k-points in 1st BZ
 the following    512 k-points will be used (e.g. in the exchange kernel)
 Following reciprocal coordinates:   # in IRBZ
  0.000000  0.000000  0.000000    0.00195312   1 t-inv F
  0.125000  0.000000  0.000000    0.00195312   2 t-inv F
  0.250000  0.000000  0.000000    0.00195312   3 t-inv F
  0.375000  0.000000  0.000000    0.00195312   4 t-inv F
  0.500000  0.000000  0.000000    0.00195312   5 t-inv F
  0.125000  0.125000  0.000000    0.00195312   6 t-inv F
  0.250000  0.125000  0.000000    0.00195312   7 t-inv F
  0.375000  0.125000  0.000000    0.00195312   8 t-inv F
  0.500000  0.125000  0.000000    0.00195312   9 t-inv F
  0.250000  0.250000  0.000000    0.00195312  10 t-inv F
  0.375000  0.250000  0.000000    0.00195312  11 t-inv F
  0.500000  0.250000  0.000000    0.00195312  12 t-inv F
  0.375000  0.375000  0.000000    0.00195312  13 t-inv F
  0.500000  0.375000  0.000000    0.00195312  14 t-inv F
  0.500000  0.500000  0.000000    0.00195312  15 t-inv F
  0.125000  0.125000  0.125000    0.00195312  16 t-inv F
  0.250000  0.125000  0.125000    0.00195312  17 t-inv F
  0.375000  0.125000  0.125000    0.00195312  18 t-inv F
  0.500000  0.125000  0.125000    0.00195312  19 t-inv F
  0.250000  0.250000  0.125000    0.00195312  20 t-inv F
  0.375000  0.250000  0.125000    0.00195312  21 t-inv F
  0.500000  0.250000  0.125000    0.00195312  22 t-inv F
  0.375000  0.375000  0.125000    0.00195312  23 t-inv F
  0.500000  0.375000  0.125000    0.00195312  24 t-inv F
  0.500000  0.500000  0.125000    0.00195312  25 t-inv F
  0.250000  0.250000  0.250000    0.00195312  26 t-inv F
  0.375000  0.250000  0.250000    0.00195312  27 t-inv F
  0.500000  0.250000  0.250000    0.00195312  28 t-inv F
  0.375000  0.375000  0.250000    0.00195312  29 t-inv F
  0.500000  0.375000  0.250000    0.00195312  30 t-inv F
  0.500000  0.500000  0.250000    0.00195312  31 t-inv F
  0.375000  0.375000  0.375000    0.00195312  32 t-inv F
  0.500000  0.375000  0.375000    0.00195312  33 t-inv F
  0.500000  0.500000  0.375000    0.00195312  34 t-inv F
  0.500000  0.500000  0.500000    0.00195312  35 t-inv F
 -0.125000 -0.000000  0.000000    0.00195312   2 t-inv F
  0.000000  0.125000  0.000000    0.00195312   2 t-inv F
  0.000000 -0.125000 -0.000000    0.00195312   2 t-inv F
  0.000000  0.000000  0.125000    0.00195312   2 t-inv F
[...]
   0.13061651  0.13061651  0.04353884       0.047
   0.17415535  0.13061651  0.04353884       0.047
   0.17415535  0.17415535  0.04353884       0.012
   0.08707767  0.08707767  0.08707767       0.016
   0.13061651  0.08707767  0.08707767       0.047
   0.17415535  0.08707767  0.08707767       0.023
   0.13061651  0.13061651  0.08707767       0.047
   0.17415535  0.13061651  0.08707767       0.047
   0.17415535  0.17415535  0.08707767       0.012
   0.13061651  0.13061651  0.13061651       0.016
   0.17415535  0.13061651  0.13061651       0.023
   0.17415535  0.17415535  0.13061651       0.012
   0.17415535  0.17415535  0.17415535       0.002

 k-points in reciprocal lattice and weights: Automatic kpoint scheme
   0.00000000  0.00000000  0.00000000       0.002
   0.12500000  0.00000000  0.00000000       0.012
   0.25000000  0.00000000  0.00000000       0.012
   0.37500000  0.00000000  0.00000000       0.012
   0.50000000  0.00000000  0.00000000       0.006
   0.12500000  0.12500000  0.00000000       0.023
   0.25000000  0.12500000  0.00000000       0.047
   0.37500000  0.12500000  0.00000000       0.047
   0.50000000  0.12500000  0.00000000       0.023
   0.25000000  0.25000000  0.00000000       0.023
   0.37500000  0.25000000  0.00000000       0.047
   0.50000000  0.25000000  0.00000000       0.023
   0.37500000  0.37500000  0.00000000       0.023
   0.50000000  0.37500000  0.00000000       0.023
   0.50000000  0.50000000  0.00000000       0.006
   0.12500000  0.12500000  0.12500000       0.016
   0.25000000  0.12500000  0.12500000       0.047
   0.37500000  0.12500000  0.12500000       0.047
   0.50000000  0.12500000  0.12500000       0.023
   0.25000000  0.25000000  0.12500000       0.047
   0.37500000  0.25000000  0.12500000       0.094
   0.50000000  0.25000000  0.12500000       0.047
   0.37500000  0.37500000  0.12500000       0.047
   0.50000000  0.37500000  0.12500000       0.047
   0.50000000  0.50000000  0.12500000       0.012
   0.25000000  0.25000000  0.25000000       0.016
   0.37500000  0.25000000  0.25000000       0.047
   0.50000000  0.25000000  0.25000000       0.023
   0.37500000  0.37500000  0.25000000       0.047
   0.50000000  0.37500000  0.25000000       0.047
   0.50000000  0.50000000  0.25000000       0.012
   0.37500000  0.37500000  0.37500000       0.016
   0.50000000  0.37500000  0.37500000       0.023
   0.50000000  0.50000000  0.37500000       0.012
   0.50000000  0.50000000  0.50000000       0.002

 position of ions in fractional coordinates (direct lattice)
   0.00000000  0.00000000  0.00000000
   0.50000000  0.50000000  0.50000000

 position of ions in cartesian coordinates  (Angst):
   0.00000000  0.00000000  0.00000000
   1.43550000  1.43550000  1.43550000

 k-point     1 :   0.0000 0.0000 0.0000  plane waves:     341
 k-point     2 :   0.1250 0.0000 0.0000  plane waves:     349
 k-point     3 :   0.2500 0.0000 0.0000  plane waves:     345
 k-point     4 :   0.3750 0.0000 0.0000  plane waves:     352
 k-point     5 :   0.5000 0.0000 0.0000  plane waves:     336
 k-point     6 :   0.1250 0.1250 0.0000  plane waves:     348
 k-point     7 :   0.2500 0.1250 0.0000  plane waves:     348
 k-point     8 :   0.3750 0.1250 0.0000  plane waves:     345
 k-point     9 :   0.5000 0.1250 0.0000  plane waves:     342
 k-point    10 :   0.2500 0.2500 0.0000  plane waves:     338
 k-point    11 :   0.3750 0.2500 0.0000  plane waves:     344
 k-point    12 :   0.5000 0.2500 0.0000  plane waves:     350
 k-point    13 :   0.3750 0.3750 0.0000  plane waves:     346
 k-point    14 :   0.5000 0.3750 0.0000  plane waves:     356
 k-point    15 :   0.5000 0.5000 0.0000  plane waves:     356
 k-point    16 :   0.1250 0.1250 0.1250  plane waves:     347
 k-point    17 :   0.2500 0.1250 0.1250  plane waves:     351
 k-point    18 :   0.3750 0.1250 0.1250  plane waves:     354
 k-point    19 :   0.5000 0.1250 0.1250  plane waves:     348
 k-point    20 :   0.2500 0.2500 0.1250  plane waves:     349
 k-point    21 :   0.3750 0.2500 0.1250  plane waves:     341
 k-point    22 :   0.5000 0.2500 0.1250  plane waves:     348
 k-point    23 :   0.3750 0.3750 0.1250  plane waves:     343
 k-point    24 :   0.5000 0.3750 0.1250  plane waves:     346
 k-point    25 :   0.5000 0.5000 0.1250  plane waves:     340
 k-point    26 :   0.2500 0.2500 0.2500  plane waves:     350
 k-point    27 :   0.3750 0.2500 0.2500  plane waves:     341
 k-point    28 :   0.5000 0.2500 0.2500  plane waves:     350
 k-point    29 :   0.3750 0.3750 0.2500  plane waves:     346
 k-point    30 :   0.5000 0.3750 0.2500  plane waves:     340
 k-point    31 :   0.5000 0.5000 0.2500  plane waves:     336
 k-point    32 :   0.3750 0.3750 0.3750  plane waves:     344
 k-point    33 :   0.5000 0.3750 0.3750  plane waves:     334
 k-point    34 :   0.5000 0.5000 0.3750  plane waves:     340
 k-point    35 :   0.5000 0.5000 0.5000  plane waves:     360

 maximum and minimum number of plane-waves per node :       360      334

 maximum number of plane-waves:       360
 maximum index in each direction:
   IXMAX=    4   IYMAX=    4   IZMAX=    4
   IXMIN=   -4   IYMIN=   -4   IZMIN=   -4

 serial   3D FFT for wavefunctions
 parallel 3D FFT for charge:
    minimum data exchange during FFTs selected (reduces bandwidth)

 Broyden mixing: mesh for mixing (old mesh)
   NGX =  9   NGY =  9   NGZ =  9
  (NGX  = 28   NGY  = 28   NGZ  = 28)
  gives a total of    729 points

 charge density for first step will be calculated from the start-wavefunctions

 Maximum index for augmentation-charges          293 (set IRDMAX)

 initial charge from wavefunction
 First call to EWALD:  gamma=   0.617
 Maximum number of real-space cells 3x 3x 3
 Maximum number of reciprocal cells 3x 3x 3

--------------------------------------- Ionic step        1  -------------------------------------------

--------------------------------------- Iteration      1(   1)  ---------------------------------------

 eigenvalue-minimisations  :  3456
 total energy-change (2. order) :-0.1904999E+02  (-0.2352833E-05)
 number of electron      23.9999610 magnetization       0.0000000
 augmentation part       11.8410616 magnetization       0.0000000

 Broyden mixing:
  rms(total) = 0.17971E-02    rms(broyden)= 0.17967E-02
  rms(prec ) = 0.19468E-02
  weight for this iteration     100.00

 Free energy of the ion-electron system (eV)
  alpha Z        PSCENC =       176.69251159
  Ewald energy   TEWEN  =     -2628.42319331
  -Hartree energ DENC   =      -581.61412884
  -exchange      EXHF   =         0.00000000
  -V(xc)+E(xc)   XCENC  =       108.64146345
  PAW double counting   =      2906.66826545    -3007.41292799
  entropy T*S    EENTRO =        -0.00185308
  eigenvalues    EBANDS =      -289.32732590
  atomic energy  EATOM  =      3295.72719809
  Solvation  Ediel_sol  =         0.00000000
  free energy    TOTEN  =       -19.04999052 eV

  energy without entropy =      -19.04813745  energy(sigma->0) =      -19.04906399

--------------------------------------- Iteration      1(   2)  ---------------------------------------

 eigenvalue-minimisations  :  3360
 total energy-change (2. order) :-0.3609941E-05  (-0.2195683E-05)
 number of electron      23.9999610 magnetization       0.0000000
 augmentation part       11.8410616 magnetization       0.0000000

 Free energy of the ion-electron system (eV)
  alpha Z        PSCENC =       176.69251159
  Ewald energy   TEWEN  =     -2628.42319331
  -Hartree energ DENC   =      -581.60140511
  -exchange      EXHF   =         0.00000000
  -V(xc)+E(xc)   XCENC  =       108.63958401
  PAW double counting   =      2906.45308247    -3007.19775082
  entropy T*S    EENTRO =        -0.00185410
  eigenvalues    EBANDS =      -289.33816696
  atomic energy  EATOM  =      3295.72719809
  Solvation  Ediel_sol  =         0.00000000
  free energy    TOTEN  =       -19.04999413 eV

  energy without entropy =      -19.04814004  energy(sigma->0) =      -19.04906709

 average (electrostatic) potential at core
  the test charge radii are     1.0025
  (the norm of the test charge is              1.0000)
       1 -66.0516       2 -66.0516

 E-fermi :  10.6594     XC(G=0): -13.5164     alpha+bet :-19.2527

 val. band max:       10.5711720731   @ k =   0.3750   0.0000   0.0000
 cond. band min:      10.6710810818   @ k =   0.3750   0.1250   0.0000
 fundamental gap:      0.0999090086
 Fermi energy:        10.6593657771

 spin component 1

 k-point     1 :       0.0000    0.0000    0.0000
  band No.  band energies     occupation
      1     -32.9351      1.00000
      2     -32.9351      1.00000
      3     -32.9351      1.00000
      4     -31.6270      1.00000
      5     -31.6270      1.00000
      6     -31.6270      1.00000
      7       2.8686      1.00000
      8       6.4887      1.00000
      9       6.4887      1.00000
     10       9.7647      1.00000
     11       9.7647      1.00000
     12       9.7647      1.00000
     13      11.8623      0.00000
     14      11.8623      0.00000
     15      13.2388      0.00000
     16      13.2388      0.00000
     17      13.2388      0.00000
     18      17.1219      0.00000
     19      18.7152      0.00000
     20      21.0422      0.00000
     21      21.0422      0.00000
     22      21.0422      0.00000
     23      27.7057      0.00000
     24      27.7057      0.00000
     25      32.7430      0.00000
     26      32.7430      0.00000
     27      32.7430      0.00000
     28      33.7071      0.00000
     29      40.0284      0.00000
     30      40.0284      0.00000
     31      44.4137      0.00000
     32      44.4137      0.00000
     33      44.4137      0.00000
     34      45.2851      0.00000
     35      45.2851      0.00000
     36      45.2851      0.00000
     37      45.7123      0.00000
     38      57.5251      0.00000
     39      57.5251      0.00000
     40      57.5251      0.00000
     41      59.4959      0.00000
     42      59.4959      0.00000
     43      59.4959      0.00000
     44      60.6551      0.00000
     45      69.9738      0.00000
     46      70.8290      0.00000
     47      70.8290      0.00000
     48      70.8290      0.00000

[...]

 k-point    35 :       0.5000    0.5000    0.5000
  band No.  band energies     occupation
      1     -32.9900      1.00000
      2     -32.9900      1.00000
      3     -32.9900      1.00000
      4     -31.8273      1.00000
      5     -31.8273      1.00000
      6     -31.8273      1.00000
      7       8.0776      1.00000
      8       8.0776      1.00000
      9       8.0776      1.00000
     10       8.7922      1.00000
     11       8.7922      1.00000
     12       8.7922      1.00000
     13      11.7154      0.00000
     14      11.7154      0.00000
     15      12.7268      0.00000
     16      12.7268      0.00000
     17      17.1180      0.00000
     18      18.7077      0.00000
     19      20.6460      0.00000
     20      20.6460      0.00000
     21      20.6460      0.00000
     22      20.8605      0.00000
     23      20.8605      0.00000
     24      20.8605      0.00000
     25      22.6100      0.00000
     26      23.1980      0.00000
     27      46.1838      0.00000
     28      46.1838      0.00000
     29      46.1838      0.00000
     30      46.3351      0.00000
     31      46.3351      0.00000
     32      46.3351      0.00000
     33      47.3940      0.00000
     34      47.3940      0.00000
     35      47.3940      0.00000
     36      47.7573      0.00000
     37      47.7573      0.00000
     38      47.7573      0.00000
     39      57.9099      0.00000
     40      57.9099      0.00000
     41      58.4671      0.00000
     42      58.4671      0.00000
     43      63.1086      0.00000
     44      63.1086      0.00000
     45      63.1086      0.00000
     46      63.1915      0.00000
     47      63.1915      0.00000
     48      63.1915      0.00000
 Fermi energy:        10.6593657771

 spin component 2

[...]

 k-point    35 :       0.5000    0.5000    0.5000
  band No.  band energies     occupation
      1     -32.9900      1.00000
      2     -32.9900      1.00000
      3     -32.9900      1.00000
      4     -31.8273      1.00000
      5     -31.8273      1.00000
      6     -31.8273      1.00000
      7       8.0776      1.00000
      8       8.0776      1.00000
      9       8.0776      1.00000
     10       8.7922      1.00000
     11       8.7922      1.00000
     12       8.7922      1.00000
     13      11.7154      0.00000
     14      11.7154      0.00000
     15      12.7268      0.00000
     16      12.7268      0.00000
     17      17.1180      0.00000
     18      18.7077      0.00000
     19      20.6460      0.00000
     20      20.6460      0.00000
     21      20.6460      0.00000
     22      20.8605      0.00000
     23      20.8605      0.00000
     24      20.8605      0.00000
     25      22.6100      0.00000
     26      23.1980      0.00000
     27      46.1838      0.00000
     28      46.1838      0.00000
     29      46.1838      0.00000
     30      46.3351      0.00000
     31      46.3351      0.00000
     32      46.3351      0.00000
     33      47.3940      0.00000
     34      47.3940      0.00000
     35      47.3940      0.00000
     36      47.7573      0.00000
     37      47.7573      0.00000
     38      47.7573      0.00000
     39      57.9099      0.00000
     40      57.9099      0.00000
     41      58.4671      0.00000
     42      58.4671      0.00000
     43      63.1086      0.00000
     44      63.1086      0.00000
     45      63.1086      0.00000
     46      63.1915      0.00000
     47      63.1915      0.00000
     48      63.1915      0.00000

 soft charge-density along one line, spin component           1
         0         1         2         3         4         5         6         7         8         9
 total charge-density along one line

 soft charge-density along one line, spin component           2
         0         1         2         3         4         5         6         7         8         9
 total charge-density along one line

------------------------ aborting loop because EDIFF is reached ----------------------------------------

  FORCE on cell =-STRESS in cart. coord.  units (eV):
  Direction    XX          YY          ZZ          XY          YZ          ZX
  Alpha Z   176.69251   176.69251   176.69251
  Ewald    -876.14100  -876.14100  -876.14100    -0.00000     0.00000     0.00000
  Hartree   193.86061   193.86061   193.86061    -0.00000    -0.00000    -0.00000
  E(xc)    -131.38808  -131.38808  -131.38808     0.00000    -0.00000    -0.00000
  Local     227.25385   227.25385   227.25385     0.00000    -0.00000    -0.00000
  n-local   -71.25408   -62.78550   -56.91948     1.68954    -0.69589     0.27368
  augment   181.53384   181.53384   181.53384     0.00000     0.00000     0.00000
  Kinetic   285.86533   290.63852   298.34010     5.51459    -1.73059     1.22339
  Fock        0.00000     0.00000     0.00000     0.00000     0.00000     0.00000
  Total      -0.22664    -0.22664    -0.22664    -0.00000     0.00000    -0.00000
  in kB     -15.34441   -15.34441   -15.34441    -0.00000     0.00000    -0.00000

 VOLUME and BASIS-vectors are now :
  energy-cutoff  :      345.39
  volume of cell :       23.66
      direct lattice vectors                 reciprocal lattice vectors
     2.871000000  0.000000000  0.000000000     0.348310693 -0.000000000  0.000000000
     0.000000000  2.871000000  0.000000000     0.000000000  0.348310693  0.000000000
     0.000000000  0.000000000  2.871000000    -0.000000000 -0.000000000  0.348310693

  length of vectors
     2.871000000  2.871000000  2.871000000     0.348310693  0.348310693  0.348310693

 FORCES acting on ions
    electron-ion (+dipol)            ewald-force                    non-local-force                 convergence-correction
   -.437E-13 -.549E-13 -.504E-13   0.623E-15 0.417E-14 -.561E-14   -.977E-25 0.140E-25 -.694E-25   0.906E-14 0.178E-14 -.121E-13
   0.333E-12 -.170E-11 0.584E-13   0.288E-14 -.492E-14 0.583E-14   -.610E-26 -.355E-25 0.478E-25   0.275E-13 -.250E-13 -.331E-13
   0.289E-12 -.176E-11 0.795E-14   0.350E-14 -.749E-15 0.222E-15   -.104E-24 -.215E-25 -.216E-25   0.366E-13 -.232E-13 -.453E-13

 POSITION                                       TOTAL-FORCE (eV/Angst)
      0.00000      0.00000      0.00000         0.000000      0.000000      0.000000
      1.43550      1.43550      1.43550        -0.000000     -0.000000     -0.000000
    total drift:                                0.000000     -0.000000     -0.000000

  FREE ENERGIE OF THE ION-ELECTRON SYSTEM (eV)
  free  energy   TOTEN  =       -19.04999413 eV

  energy  without entropy=      -19.04814004  energy(sigma->0) =      -19.04906709

 writing wavefunctions