 vasp.6.4.3 19Mar24 (build Jun 26 2024 13:02:28) complex

 executed on             LinuxIFC date 2025.08.08  18:40:49

 INCAR:
   ENCUT = 346.6086
   IBRION = -1
   ISMEAR = 0
   ISYM = 2
   LCHARG = True
   LWAVE = True
   SIGMA = 0.05
   SYSTEM = Ca

 POTCAR:  PAW_PBE Ca_sv 06Sep2000
|           W    W    AA    RRRRR   N    N  II  N    N   GGGG   !!!           |
|           W    W   A  A   R    R  NN   N  II  NN   N  G    G  !!!           |
|           W    W  A    A  R    R  N N  N  II  N N  N  G       !!!           |
|           W WW W  AAAAAA  RRRRR   N  N N  II  N  N N  G  GGG   !            |
|           WW  WW  A    A  R   R   N   NN  II  N   NN  G    G                |
|           W    W  A    A  R    R  N    N  II  N    N   GGGG   !!!           |
|     For optimal performance we recommend to set                             |
|       NCORE = 2 up to number-of-cores-per-socket                            |
|     This setting can greatly improve the performance of VASP for DFT.       |
|     The default, NCORE=1 might be grossly inefficient on modern             |
|     multi-core architectures or massively parallel machines. Do your        |
|     Unfortunately you need to use the default for GW and RPA                |
|     calculations (for HF NCORE is supported but not extensively tested      |
|     yet).                                                                   |

 POTCAR:  PAW_PBE Ca_sv 06Sep2000
   VRHFIN =Ca: 3s3p4s

   TITEL  = PAW_PBE Ca_sv 06Sep2000
   POMASS =   40.078; ZVAL   =   10.000    mass and valenz
   ENMAX  =  266.622; ENMIN  =  199.967 eV

PAW_PBE Ca_sv 06Sep2000                 :

 POSCAR: Ca4
  positions in direct lattice

 exchange-correlation table for PE
   RHO(1)=    0.500       N(1)  =     2000
   RHO(2)=  100.500       N(2)  =     4000

 ion  position               nearest neighbor table
   1  0.000  0.000  0.000-
   2  0.000  0.500  0.500-
   3  0.500  0.000  0.500-
   4  0.500  0.500  0.000-

  LATTYP: Found a simple cubic cell.
 ALAT       =     5.5250700000

  Lattice vectors:

 A1 = (   5.5250700000,   0.0000000000,   0.0000000000)
 A2 = (   0.0000000000,   5.5250700000,   0.0000000000)
 A3 = (   0.0000000000,   0.0000000000,   5.5250700000)

Analysis of symmetry for initial positions (statically):
 Subroutine PRICEL returns following result:

  LATTYP: Found a face centered cubic cell.
 ALAT       =     5.5250700000

[...]

   4 primitive cells build up your supercell.

 Routine SETGRP: Setting up the symmetry group for a
 simple cubic supercell.

 Subroutine GETGRP returns: Found 48 space group operations
 (whereof 48 operations were pure point group operations)
 out of a pool of 48 trial point group operations.

The static configuration has the point symmetry O_h .

Analysis of symmetry for dynamics (positions and initial velocities):
 Subroutine PRICEL returns following result:

  LATTYP: Found a face centered cubic cell.
 ALAT       =     5.5250700000

  Lattice vectors:

 A1 = (   2.7625350000,  -2.7625350000,   0.0000000000)
 A2 = (   2.7625350000,   0.0000000000,   2.7625350000)
 A3 = (   0.0000000000,  -2.7625350000,   2.7625350000)

   4 primitive cells build up your supercell.

 Routine SETGRP: Setting up the symmetry group for a
 simple cubic supercell.

 Subroutine GETGRP returns: Found 48 space group operations
 (whereof 48 operations were pure point group operations)
 out of a pool of 48 trial point group operations.

The dynamic configuration has the point symmetry O_h .

 Subroutine INISYM returns: Found 48 space group operations
 (whereof 48 operations are pure point group operations),
 and found     4 'primitive' translations

                                     Primitive cell

  volume of cell :      42.1651

  direct lattice vectors                    reciprocal lattice vectors
     2.762535000 -2.762535000  0.000000000     0.180993182 -0.180993182 -0.180993182
     2.762535000  0.000000000  2.762535000     0.180993182  0.180993182  0.180993182
     0.000000000 -2.762535000  2.762535000    -0.180993182 -0.180993182  0.180993182

  length of vectors
     3.906814464  3.906814464  3.906814464     0.313489387  0.313489387  0.313489387

  position of ions in fractional coordinates (direct lattice)
     0.000000000  0.000000000  0.000000000

  ion indices of the primitive-cell ions
   primitive index   ion index
                 1           1

 KPOINTS: Automatic kpoint scheme

Automatic generation of k-mesh.
 Grid dimensions read from file:
 generate k-points for:    8    8    8

 Generating k-lattice:

  Cartesian coordinates                     Fractional coordinates (reciprocal lattice)
     0.022624148 -0.000000000  0.000000000     0.125000000 -0.000000000  0.000000000
     0.000000000  0.022624148  0.000000000     0.000000000  0.125000000  0.000000000
    -0.000000000 -0.000000000  0.022624148    -0.000000000  0.000000000  0.125000000

  Length of vectors
     0.022624148  0.022624148  0.022624148

  Shift w.r.t. Gamma in fractional coordinates (k-lattice)
     0.000000000  0.000000000  0.000000000

 Subroutine IBZKPT returns following result:

 Found     35 irreducible k-points:

 Following reciprocal coordinates:
            Coordinates               Weight
  0.000000  0.000000  0.000000      1.000000
  0.125000  0.000000  0.000000      6.000000
  0.250000  0.000000  0.000000      6.000000
  0.375000  0.000000  0.000000      6.000000
  0.500000  0.000000  0.000000      3.000000
  0.125000  0.125000  0.000000     12.000000
  0.250000  0.125000  0.000000     24.000000
  0.375000  0.125000  0.000000     24.000000
  0.500000  0.125000  0.000000     12.000000
  0.250000  0.250000  0.000000     12.000000
  0.375000  0.250000  0.000000     24.000000
  0.500000  0.250000  0.000000     12.000000
  0.375000  0.375000  0.000000     12.000000
  0.500000  0.375000  0.000000     12.000000
  0.500000  0.500000  0.000000      3.000000
  0.125000  0.125000  0.125000      8.000000
  0.250000  0.125000  0.125000     24.000000
  0.375000  0.125000  0.125000     24.000000
  0.500000  0.125000  0.125000     12.000000
  0.250000  0.250000  0.125000     24.000000
  0.375000  0.250000  0.125000     48.000000
  0.500000  0.250000  0.125000     24.000000
  0.375000  0.375000  0.125000     24.000000
  0.500000  0.375000  0.125000     24.000000
  0.500000  0.500000  0.125000      6.000000
  0.250000  0.250000  0.250000      8.000000
  0.375000  0.250000  0.250000     24.000000
  0.500000  0.250000  0.250000     12.000000
  0.375000  0.375000  0.250000     24.000000
  0.500000  0.375000  0.250000     24.000000
  0.500000  0.500000  0.250000      6.000000
  0.375000  0.375000  0.375000      8.000000
  0.500000  0.375000  0.375000     12.000000
  0.500000  0.500000  0.375000      6.000000
  0.500000  0.500000  0.500000      1.000000

 Following cartesian coordinates:
            Coordinates               Weight
  0.000000  0.000000  0.000000      1.000000
  0.022624 -0.000000  0.000000      6.000000
  0.045248 -0.000000  0.000000      6.000000
  0.067872 -0.000000  0.000000      6.000000
  0.090497 -0.000000  0.000000      3.000000
  0.022624  0.022624  0.000000     12.000000
  0.045248  0.022624  0.000000     24.000000
  0.067872  0.022624  0.000000     24.000000
  0.090497  0.022624  0.000000     12.000000
  0.045248  0.045248  0.000000     12.000000
  0.067872  0.045248  0.000000     24.000000
  0.090497  0.045248  0.000000     12.000000
  0.067872  0.067872  0.000000     12.000000
  0.090497  0.067872  0.000000     12.000000
  0.090497  0.090497  0.000000      3.000000
  0.022624  0.022624  0.022624      8.000000
  0.045248  0.022624  0.022624     24.000000
  0.067872  0.022624  0.022624     24.000000
  0.090497  0.022624  0.022624     12.000000
  0.045248  0.045248  0.022624     24.000000
  0.067872  0.045248  0.022624     48.000000
  0.090497  0.045248  0.022624     24.000000
  0.067872  0.067872  0.022624     24.000000
  0.090497  0.067872  0.022624     24.000000
  0.090497  0.090497  0.022624      6.000000
  0.045248  0.045248  0.045248      8.000000
  0.067872  0.045248  0.045248     24.000000
  0.090497  0.045248  0.045248     12.000000
  0.067872  0.067872  0.045248     24.000000
  0.090497  0.067872  0.045248     24.000000
  0.090497  0.090497  0.045248      6.000000
  0.067872  0.067872  0.067872      8.000000
  0.090497  0.067872  0.067872     12.000000
  0.090497  0.090497  0.067872      6.000000
  0.090497  0.090497  0.090497      1.000000

 Subroutine IBZKPT_HF returns following result:

 Found    512 k-points in 1st BZ
 the following    512 k-points will be used (e.g. in the exchange kernel)
 Following reciprocal coordinates:   # in IRBZ
  0.000000  0.000000  0.000000    0.00195312   1 t-inv F
  0.125000  0.000000  0.000000    0.00195312   2 t-inv F
  0.250000  0.000000  0.000000    0.00195312   3 t-inv F
  0.375000  0.000000  0.000000    0.00195312   4 t-inv F
  0.500000  0.000000  0.000000    0.00195312   5 t-inv F
  0.125000  0.125000  0.000000    0.00195312   6 t-inv F
  0.250000  0.125000  0.000000    0.00195312   7 t-inv F
  0.375000  0.125000  0.000000    0.00195312   8 t-inv F
  0.500000  0.125000  0.000000    0.00195312   9 t-inv F
  0.250000  0.250000  0.000000    0.00195312  10 t-inv F
  0.375000  0.250000  0.000000    0.00195312  11 t-inv F
  0.500000  0.250000  0.000000    0.00195312  12 t-inv F
  0.375000  0.375000  0.000000    0.00195312  13 t-inv F
  0.500000  0.375000  0.000000    0.00195312  14 t-inv F
  0.500000  0.500000  0.000000    0.00195312  15 t-inv F
  0.125000  0.125000  0.125000    0.00195312  16 t-inv F
  0.250000  0.125000  0.125000    0.00195312  17 t-inv F
  0.375000  0.125000  0.125000    0.00195312  18 t-inv F
  0.500000  0.125000  0.125000    0.00195312  19 t-inv F
  0.250000  0.250000  0.125000    0.00195312  20 t-inv F
  0.375000  0.250000  0.125000    0.00195312  21 t-inv F
  0.500000  0.250000  0.125000    0.00195312  22 t-inv F
  0.375000  0.375000  0.125000    0.00195312  23 t-inv F
  0.500000  0.375000  0.125000    0.00195312  24 t-inv F
  0.500000  0.500000  0.125000    0.00195312  25 t-inv F
  0.250000  0.250000  0.250000    0.00195312  26 t-inv F
  0.375000  0.250000  0.250000    0.00195312  27 t-inv F
  0.500000  0.250000  0.250000    0.00195312  28 t-inv F
  0.375000  0.375000  0.250000    0.00195312  29 t-inv F
  0.500000  0.375000  0.250000    0.00195312  30 t-inv F
  0.500000  0.500000  0.250000    0.00195312  31 t-inv F
  0.375000  0.375000  0.375000    0.00195312  32 t-inv F
  0.500000  0.375000  0.375000    0.00195312  33 t-inv F
  0.500000  0.500000  0.375000    0.00195312  34 t-inv F
  0.500000  0.500000  0.500000    0.00195312  35 t-inv F
 -0.125000 -0.000000  0.000000    0.00195312   2 t-inv F
  0.000000  0.125000  0.000000    0.00195312   2 t-inv F
  0.000000 -0.125000 -0.000000    0.00195312   2 t-inv F
  0.000000  0.000000  0.125000    0.00195312   2 t-inv F
 -0.000000  0.000000 -0.125000    0.00195312   2 t-inv F
 -0.250000 -0.000000  0.000000    0.00195312   3 t-inv F
  0.000000  0.250000  0.000000    0.00195312   3 t-inv F
  0.000000 -0.250000 -0.000000    0.00195312   3 t-inv F
  0.000000  0.000000  0.250000    0.00195312   3 t-inv F
[...]
     5.525070000  0.000000000  0.000000000     0.180993182 -0.000000000  0.000000000
     0.000000000  5.525070000  0.000000000     0.000000000  0.180993182  0.000000000
     0.000000000  0.000000000  5.525070000    -0.000000000 -0.000000000  0.180993182

  length of vectors

 k-points in units of 2pi/SCALE and weight: Automatic kpoint scheme
   0.00000000  0.00000000  0.00000000       0.002
   0.02262415 -0.00000000  0.00000000       0.012
   0.04524830 -0.00000000  0.00000000       0.012
   0.06787244 -0.00000000  0.00000000       0.012
   0.09049659 -0.00000000  0.00000000       0.006
   0.02262415  0.02262415  0.00000000       0.023
   0.04524830  0.02262415  0.00000000       0.047
   0.06787244  0.02262415  0.00000000       0.047
   0.09049659  0.02262415  0.00000000       0.023
   0.04524830  0.04524830  0.00000000       0.023
   0.06787244  0.04524830  0.00000000       0.047
   0.09049659  0.04524830  0.00000000       0.023
   0.06787244  0.06787244  0.00000000       0.023
   0.09049659  0.06787244  0.00000000       0.023
   0.09049659  0.09049659  0.00000000       0.006
   0.02262415  0.02262415  0.02262415       0.016
   0.04524830  0.02262415  0.02262415       0.047
   0.06787244  0.02262415  0.02262415       0.047
   0.09049659  0.02262415  0.02262415       0.023
   0.04524830  0.04524830  0.02262415       0.047
   0.06787244  0.04524830  0.02262415       0.094
   0.09049659  0.04524830  0.02262415       0.047
   0.06787244  0.06787244  0.02262415       0.047
   0.09049659  0.06787244  0.02262415       0.047
   0.09049659  0.09049659  0.02262415       0.012
   0.04524830  0.04524830  0.04524830       0.016
   0.06787244  0.04524830  0.04524830       0.047
   0.09049659  0.04524830  0.04524830       0.023
   0.06787244  0.06787244  0.04524830       0.047
   0.09049659  0.06787244  0.04524830       0.047
   0.09049659  0.09049659  0.04524830       0.012
   0.06787244  0.06787244  0.06787244       0.016
   0.09049659  0.06787244  0.06787244       0.023
   0.09049659  0.09049659  0.06787244       0.012
   0.09049659  0.09049659  0.09049659       0.002

 k-points in reciprocal lattice and weights: Automatic kpoint scheme
   0.00000000  0.00000000  0.00000000       0.002
   0.12500000  0.00000000  0.00000000       0.012
   0.25000000  0.00000000  0.00000000       0.012
   0.37500000  0.00000000  0.00000000       0.012
   0.50000000  0.00000000  0.00000000       0.006
   0.12500000  0.12500000  0.00000000       0.023
   0.25000000  0.12500000  0.00000000       0.047
   0.37500000  0.12500000  0.00000000       0.047
   0.50000000  0.12500000  0.00000000       0.023
   0.25000000  0.25000000  0.00000000       0.023
   0.37500000  0.25000000  0.00000000       0.047
   0.50000000  0.25000000  0.00000000       0.023
   0.37500000  0.37500000  0.00000000       0.023
   0.50000000  0.37500000  0.00000000       0.023
   0.50000000  0.50000000  0.00000000       0.006
   0.12500000  0.12500000  0.12500000       0.016
   0.25000000  0.12500000  0.12500000       0.047
   0.37500000  0.12500000  0.12500000       0.047
   0.50000000  0.12500000  0.12500000       0.023
   0.25000000  0.25000000  0.12500000       0.047
   0.37500000  0.25000000  0.12500000       0.094
   0.50000000  0.25000000  0.12500000       0.047
   0.37500000  0.37500000  0.12500000       0.047
   0.50000000  0.37500000  0.12500000       0.047
   0.50000000  0.50000000  0.12500000       0.012
   0.25000000  0.25000000  0.25000000       0.016
   0.37500000  0.25000000  0.25000000       0.047
   0.50000000  0.25000000  0.25000000       0.023
   0.37500000  0.37500000  0.25000000       0.047
   0.50000000  0.37500000  0.25000000       0.047
   0.50000000  0.50000000  0.25000000       0.012
   0.37500000  0.37500000  0.37500000       0.016
   0.50000000  0.37500000  0.37500000       0.023
   0.50000000  0.50000000  0.37500000       0.012
   0.50000000  0.50000000  0.50000000       0.002

 position of ions in fractional coordinates (direct lattice)
   0.00000000  0.00000000  0.00000000
   0.00000000  0.50000000  0.50000000
   0.50000000  0.00000000  0.50000000
   0.50000000  0.50000000  0.00000000

 position of ions in cartesian coordinates  (Angst):
   0.00000000  0.00000000  0.00000000
   0.00000000  2.76253500  2.76253500
   2.76253500  0.00000000  2.76253500
   2.76253500  2.76253500  0.00000000

 k-point     1 :   0.0000 0.0000 0.0000  plane waves:    2517
 k-point     2 :   0.1250 0.0000 0.0000  plane waves:    2481
 k-point     3 :   0.2500 0.0000 0.0000  plane waves:    2485
 k-point     4 :   0.3750 0.0000 0.0000  plane waves:    2461
 k-point     5 :   0.5000 0.0000 0.0000  plane waves:    2496
 k-point     6 :   0.1250 0.1250 0.0000  plane waves:    2472
 k-point     7 :   0.2500 0.1250 0.0000  plane waves:    2486
 k-point     8 :   0.3750 0.1250 0.0000  plane waves:    2467
 k-point     9 :   0.5000 0.1250 0.0000  plane waves:    2480
 k-point    10 :   0.2500 0.2500 0.0000  plane waves:    2468
 k-point    11 :   0.3750 0.2500 0.0000  plane waves:    2467
 k-point    12 :   0.5000 0.2500 0.0000  plane waves:    2494
 k-point    13 :   0.3750 0.3750 0.0000  plane waves:    2472
 k-point    14 :   0.5000 0.3750 0.0000  plane waves:    2462
 k-point    15 :   0.5000 0.5000 0.0000  plane waves:    2464
 k-point    16 :   0.1250 0.1250 0.1250  plane waves:    2478
 k-point    17 :   0.2500 0.1250 0.1250  plane waves:    2478
 k-point    18 :   0.3750 0.1250 0.1250  plane waves:    2469
 k-point    19 :   0.5000 0.1250 0.1250  plane waves:    2472
 k-point    20 :   0.2500 0.2500 0.1250  plane waves:    2471
 k-point    21 :   0.3750 0.2500 0.1250  plane waves:    2481
 k-point    22 :   0.5000 0.2500 0.1250  plane waves:    2482
 k-point    23 :   0.3750 0.3750 0.1250  plane waves:    2486
 k-point    24 :   0.5000 0.3750 0.1250  plane waves:    2468
 k-point    25 :   0.5000 0.5000 0.1250  plane waves:    2468
 k-point    26 :   0.2500 0.2500 0.2500  plane waves:    2470
 k-point    27 :   0.3750 0.2500 0.2500  plane waves:    2473
 k-point    28 :   0.5000 0.2500 0.2500  plane waves:    2458
 k-point    29 :   0.3750 0.3750 0.2500  plane waves:    2465
 k-point    30 :   0.5000 0.3750 0.2500  plane waves:    2452
 k-point    31 :   0.5000 0.5000 0.2500  plane waves:    2468
 k-point    32 :   0.3750 0.3750 0.3750  plane waves:    2458
 k-point    33 :   0.5000 0.3750 0.3750  plane waves:    2448
 k-point    34 :   0.5000 0.5000 0.3750  plane waves:    2448
 k-point    35 :   0.5000 0.5000 0.5000  plane waves:    2440

 maximum and minimum number of plane-waves per node :      2517     2440

 maximum number of plane-waves:      2517
 maximum index in each direction:
   IXMAX=    8   IYMAX=    8   IZMAX=    8
   IXMIN=   -8   IYMIN=   -8   IZMIN=   -8

 serial   3D FFT for wavefunctions
 parallel 3D FFT for charge:
    minimum data exchange during FFTs selected (reduces bandwidth)

 Broyden mixing: mesh for mixing (old mesh)
   NGX = 17   NGY = 17   NGZ = 17
  (NGX  = 56   NGY  = 56   NGZ  = 56)
  gives a total of   4913 points

 charge density for first step will be calculated from the start-wavefunctions

 Maximum index for augmentation-charges          594 (set IRDMAX)

 initial charge from wavefunction
 First call to EWALD:  gamma=   0.321
 Maximum number of real-space cells 3x 3x 3
 Maximum number of reciprocal cells 3x 3x 3

--------------------------------------- Ionic step        1  -------------------------------------------

--------------------------------------- Iteration      1(   1)  ---------------------------------------

 eigenvalue-minimisations  :  2304
 total energy-change (2. order) :-0.7731256E+01  (-0.5195966E-05)
 number of electron      40.0000113 magnetization
 augmentation part        9.9043894 magnetization

 Broyden mixing:
  rms(total) = 0.76585E-03    rms(broyden)= 0.76582E-03
  rms(prec ) = 0.13679E-02
  weight for this iteration     100.00

 Free energy of the ion-electron system (eV)
  alpha Z        PSCENC =       120.43058674
  Ewald energy   TEWEN  =     -2389.87157655
  -Hartree energ DENC   =     -1123.93055316
  -exchange      EXHF   =         0.00000000
  -V(xc)+E(xc)   XCENC  =       165.55192601
  PAW double counting   =      2819.65476143    -2803.82935293
  entropy T*S    EENTRO =        -0.00739816
  eigenvalues    EBANDS =      -820.04557727
  atomic energy  EATOM  =      4024.31592805
  Solvation  Ediel_sol  =         0.00000000
  free energy    TOTEN  =        -7.73125584 eV

  energy without entropy =       -7.72385768  energy(sigma->0) =       -7.72755676

--------------------------------------- Iteration      1(   2)  ---------------------------------------

 eigenvalue-minimisations  :  1872
 total energy-change (2. order) : 0.2700578E-05  (-0.5261675E-06)
 number of electron      40.0000113 magnetization
 augmentation part        9.9043894 magnetization

 Free energy of the ion-electron system (eV)
  alpha Z        PSCENC =       120.43058674
  Ewald energy   TEWEN  =     -2389.87157655
  -Hartree energ DENC   =     -1123.88368608
  -exchange      EXHF   =         0.00000000
  -V(xc)+E(xc)   XCENC  =       165.54931261
  PAW double counting   =      2819.57381499    -2803.75137666
  entropy T*S    EENTRO =        -0.00740145
  eigenvalues    EBANDS =      -820.08685479
  atomic energy  EATOM  =      4024.31592805
  Solvation  Ediel_sol  =         0.00000000
  free energy    TOTEN  =        -7.73125314 eV

  energy without entropy =       -7.72385169  energy(sigma->0) =       -7.72755241

 average (electrostatic) potential at core
  the test charge radii are     1.1137
  (the norm of the test charge is              1.0000)
       1 -48.9483       2 -48.9483       3 -48.9483       4 -48.9483

 E-fermi :   1.9793     XC(G=0):  -7.7390     alpha+bet : -7.0952

 val. band max:        1.9688746816   @ k =   0.5000   0.5000   0.3750
 cond. band min:       1.9897119110   @ k =   0.2500   0.2500   0.0000
 fundamental gap:      0.0208372294
 Fermi energy:         1.9792594477

 k-point     1 :       0.0000    0.0000    0.0000
  band No.  band energies     occupation
      1     -40.0574      2.00000
      2     -40.0393      2.00000
      3     -40.0393      2.00000
      4     -40.0393      2.00000
      5     -21.1052      2.00000
      6     -21.1052      2.00000
      7     -21.1052      2.00000
      8     -21.0254      2.00000
      9     -21.0254      2.00000
     10     -21.0254      2.00000
     11     -21.0254      2.00000
     12     -21.0254      2.00000
     13     -21.0254      2.00000
     14     -20.9746      2.00000
     15     -20.9746      2.00000
     16     -20.9746      2.00000
     17      -2.0614      2.00000
     18       1.5074      2.00000
     19       1.5074      2.00000
     20       1.5074      2.00000
     21       2.5385      0.00000
     22       2.5385      0.00000
     23       2.5385      0.00000
     24       2.9311      0.00000
     25       2.9311      0.00000
     26       2.9311      0.00000
     27       4.2996      0.00000
     28       4.2996      0.00000
     29       4.2996      0.00000
     30       5.3702      0.00000
     31       5.3702      0.00000
     32       6.0494      0.00000
     33       6.0494      0.00000
     34       6.0494      0.00000
     35       6.2382      0.00000
     36       6.2382      0.00000
     37       6.2382      0.00000
     38       6.2382      0.00000
     39       6.2382      0.00000
     40       6.2382      0.00000
     41       7.9836      0.00000
     42       7.9836      0.00000
     43       7.9836      0.00000
     44       8.0194      0.00000
     45       8.0194      0.00000
     46       8.0194      0.00000
     47       8.0194      0.00000
     48       8.0194      0.00000

[...]

 k-point    35 :       0.5000    0.5000    0.5000
  band No.  band energies     occupation
      1     -40.0438      2.00000
      2     -40.0438      2.00000
      3     -40.0438      2.00000
      4     -40.0438      2.00000
      5     -21.1130      2.00000
      6     -21.1130      2.00000
      7     -21.1130      2.00000
      8     -21.1130      2.00000
      9     -20.9938      2.00000
     10     -20.9938      2.00000
     11     -20.9938      2.00000
     12     -20.9938      2.00000
     13     -20.9938      2.00000
     14     -20.9938      2.00000
     15     -20.9938      2.00000
     16     -20.9938      2.00000
     17       0.9783      2.00000
     18       0.9783      2.00000
     19       0.9783      2.00000
     20       0.9783      2.00000
     21       1.8027      2.00000
     22       1.8027      2.00000
     23       1.8027      2.00000
     24       1.8027      2.00000
     25       4.1846      0.00000
     26       4.1846      0.00000
     27       4.1846      0.00000
     28       4.1846      0.00000
     29       4.1846      0.00000
     30       4.1846      0.00000
     31       4.1846      0.00000
     32       4.1846      0.00000
     33       6.0563      0.00000
     34       6.0563      0.00000
     35       6.0563      0.00000
     36       6.0563      0.00000
     37       6.0563      0.00000
     38       6.0563      0.00000
     39       6.0563      0.00000
     40       6.0563      0.00000
     41       7.1731      0.00000
     42       7.1731      0.00000
     43       7.1731      0.00000
     44       7.1731      0.00000
     45      10.5796      0.00000
     46      10.5796      0.00000
     47      10.5796      0.00000
     48      10.5796      0.00000

 soft charge-density along one line, spin component           1
         0         1         2         3         4         5         6         7         8         9
 total charge-density along one line

------------------------ aborting loop because EDIFF is reached ----------------------------------------

  FORCE on cell =-STRESS in cart. coord.  units (eV):
  Direction    XX          YY          ZZ          XY          YZ          ZX
  Alpha Z   120.43059   120.43059   120.43059
  Ewald    -796.62421  -796.62421  -796.62421    -0.00000     0.00000    -0.00000
  Hartree   374.60556   374.60556   374.60556    -0.00000    -0.00000    -0.00000
  E(xc)    -173.68586  -173.68586  -173.68586     0.00000     0.00000     0.00000
  Local      46.41828    46.41828    46.41828    -0.00000    -0.00000    -0.00000
  n-local  -173.17094  -175.62583  -185.21097    -1.48139    -0.99211    -0.61666
  augment    96.69196    96.69196    96.69196     0.00000     0.00000     0.00000
  Kinetic   508.31884   509.93837   512.00072     0.45041    -0.83536    -0.92069
  Fock        0.00000     0.00000     0.00000     0.00000     0.00000     0.00000
  Total      -0.08029    -0.08029    -0.08029    -0.00000    -0.00000     0.00000
  in kB      -0.76271    -0.76271    -0.76271    -0.00000    -0.00000     0.00000

 VOLUME and BASIS-vectors are now :
  energy-cutoff  :      346.61
  volume of cell :      168.66
      direct lattice vectors                 reciprocal lattice vectors
     5.525070000  0.000000000  0.000000000     0.180993182 -0.000000000  0.000000000
     0.000000000  5.525070000  0.000000000     0.000000000  0.180993182  0.000000000
     0.000000000  0.000000000  5.525070000    -0.000000000 -0.000000000  0.180993182

  length of vectors
     5.525070000  5.525070000  5.525070000     0.180993182  0.180993182  0.180993182

 FORCES acting on ions
    electron-ion (+dipol)            ewald-force                    non-local-force                 convergence-correction
   -.204E-13 -.128E-13 -.198E-13   0.276E-14 0.234E-14 0.147E-14   -.609E-24 0.205E-24 0.234E-24   -.124E-13 0.513E-14 0.133E-15
   -.198E-13 0.268E-12 0.245E-12   0.273E-14 0.148E-15 0.240E-14   -.706E-24 0.139E-24 0.527E-24   -.118E-13 0.190E-14 -.177E-13
   0.254E-12 -.146E-13 0.470E-11   -.281E-14 -.764E-15 0.245E-14   0.470E-25 0.152E-24 0.210E-25   -.219E-13 0.935E-14 -.271E-13
   0.255E-12 0.229E-11 0.140E-11   -.283E-14 -.295E-14 -.459E-14   -.370E-24 -.114E-24 0.529E-24   -.175E-13 0.909E-14 -.584E-14
   0.469E-12 0.253E-11 0.633E-11   -.144E-15 -.123E-14 0.173E-14   -.164E-23 0.381E-24 0.131E-23   -.636E-13 0.255E-13 -.504E-13

 POSITION                                       TOTAL-FORCE (eV/Angst)
      0.00000      0.00000      0.00000         0.000000     -0.000000     -0.000000
      0.00000      2.76254      2.76254         0.000000     -0.000000      0.000000
      2.76254      0.00000      2.76254        -0.000000      0.000000     -0.000000
      2.76254      2.76254      0.00000        -0.000000     -0.000000      0.000000
    total drift:                                0.000000      0.000000      0.000000

  FREE ENERGIE OF THE ION-ELECTRON SYSTEM (eV)
  free  energy   TOTEN  =        -7.73125314 eV

  energy  without entropy=       -7.72385169  energy(sigma->0) =       -7.72755241

 writing wavefunctions