 vasp.6.4.3 19Mar24 (build Jun 26 2024 13:02:28) complex

 executed on             LinuxIFC date 2025.08.08  19:01:19

 INCAR:
   ENCUT = 446.6878
   IBRION = -1
   ISMEAR = 0
   ISYM = 2
   LCHARG = True
   LWAVE = True
   SIGMA = 0.05
   SYSTEM = Ne

 POTCAR:  PAW_PBE Ne 05Jan2001
|           W    W    AA    RRRRR   N    N  II  N    N   GGGG   !!!           |
|           W    W   A  A   R    R  NN   N  II  NN   N  G    G  !!!           |
|           W    W  A    A  R    R  N N  N  II  N N  N  G       !!!           |
|           W WW W  AAAAAA  RRRRR   N  N N  II  N  N N  G  GGG   !            |
|           WW  WW  A    A  R   R   N   NN  II  N   NN  G    G                |
|           W    W  A    A  R    R  N    N  II  N    N   GGGG   !!!           |
|     For optimal performance we recommend to set                             |
|       NCORE = 2 up to number-of-cores-per-socket                            |
|     This setting can greatly improve the performance of VASP for DFT.       |
|     The default, NCORE=1 might be grossly inefficient on modern             |
|     multi-core architectures or massively parallel machines. Do your        |
|     Unfortunately you need to use the default for GW and RPA                |
|     calculations (for HF NCORE is supported but not extensively tested      |
|     yet).                                                                   |

 POTCAR:  PAW_PBE Ne 05Jan2001
   VRHFIN =Ne: s2p6

   TITEL  = PAW_PBE Ne 05Jan2001
   POMASS =   20.180; ZVAL   =    8.000    mass and valenz
   ENMAX  =  343.606; ENMIN  =  257.704 eV

PAW_PBE Ne 05Jan2001                    :

 POSCAR: Ne4
  positions in direct lattice

 exchange-correlation table for PE
   RHO(1)=    0.500       N(1)  =     2000
   RHO(2)=  100.500       N(2)  =     4000

 ion  position               nearest neighbor table
   1  0.000  0.000  0.000-
   2  0.000  0.500  0.500-
   3  0.500  0.000  0.500-
   4  0.500  0.500  0.000-

  LATTYP: Found a simple cubic cell.
 ALAT       =     4.6226200000

  Lattice vectors:

 A1 = (   4.6226200000,   0.0000000000,   0.0000000000)
 A2 = (   0.0000000000,   4.6226200000,   0.0000000000)
 A3 = (   0.0000000000,   0.0000000000,   4.6226200000)

Analysis of symmetry for initial positions (statically):
 Subroutine PRICEL returns following result:

  LATTYP: Found a face centered cubic cell.
 ALAT       =     4.6226200000

[...]

   4 primitive cells build up your supercell.

 Routine SETGRP: Setting up the symmetry group for a
 simple cubic supercell.

 Subroutine GETGRP returns: Found 48 space group operations
 (whereof 48 operations were pure point group operations)
 out of a pool of 48 trial point group operations.

The static configuration has the point symmetry O_h .

Analysis of symmetry for dynamics (positions and initial velocities):
 Subroutine PRICEL returns following result:

  LATTYP: Found a face centered cubic cell.
 ALAT       =     4.6226200000

  Lattice vectors:

 A1 = (   2.3113100000,  -2.3113100000,   0.0000000000)
 A2 = (   2.3113100000,   0.0000000000,   2.3113100000)
 A3 = (  -0.0000000000,  -2.3113100000,   2.3113100000)

   4 primitive cells build up your supercell.

 Routine SETGRP: Setting up the symmetry group for a
 simple cubic supercell.

 Subroutine GETGRP returns: Found 48 space group operations
 (whereof 48 operations were pure point group operations)
 out of a pool of 48 trial point group operations.

The dynamic configuration has the point symmetry O_h .

 Subroutine INISYM returns: Found 48 space group operations
 (whereof 48 operations are pure point group operations),
 and found     4 'primitive' translations

                                     Primitive cell

  volume of cell :      24.6947

  direct lattice vectors                    reciprocal lattice vectors
     2.311310000 -2.311310000  0.000000000     0.216327537 -0.216327537 -0.216327537
     2.311310000  0.000000000  2.311310000     0.216327537  0.216327537  0.216327537
    -0.000000000 -2.311310000  2.311310000    -0.216327537 -0.216327537  0.216327537

  length of vectors
     3.268685949  3.268685949  3.268685949     0.374690286  0.374690286  0.374690286

  position of ions in fractional coordinates (direct lattice)
     0.000000000  0.000000000  0.000000000

  ion indices of the primitive-cell ions
   primitive index   ion index
                 1           1

 KPOINTS: Automatic kpoint scheme

Automatic generation of k-mesh.
 Grid dimensions read from file:
 generate k-points for:   12   12   12

 Generating k-lattice:

  Cartesian coordinates                     Fractional coordinates (reciprocal lattice)
     0.018027295 -0.000000000  0.000000000     0.083333333 -0.000000000  0.000000000
     0.000000000  0.018027295  0.000000000     0.000000000  0.083333333  0.000000000
    -0.000000000 -0.000000000  0.018027295     0.000000000 -0.000000000  0.083333333

  Length of vectors
     0.018027295  0.018027295  0.018027295

  Shift w.r.t. Gamma in fractional coordinates (k-lattice)
     0.000000000  0.000000000  0.000000000

 Subroutine IBZKPT returns following result:

 Found     84 irreducible k-points:

 Following reciprocal coordinates:
            Coordinates               Weight
  0.000000  0.000000  0.000000      1.000000
  0.083333  0.000000  0.000000      6.000000
  0.166667 -0.000000  0.000000      6.000000
  0.250000 -0.000000  0.000000      6.000000
  0.333333  0.000000  0.000000      6.000000
  0.416667  0.000000  0.000000      6.000000
  0.500000 -0.000000  0.000000      3.000000
  0.083333  0.083333  0.000000     12.000000
  0.166667  0.083333  0.000000     24.000000
  0.250000  0.083333  0.000000     24.000000
  0.333333  0.083333  0.000000     24.000000
  0.416667  0.083333  0.000000     24.000000
  0.500000  0.083333  0.000000     12.000000
  0.166667  0.166667  0.000000     12.000000
  0.250000  0.166667  0.000000     24.000000
  0.333333  0.166667  0.000000     24.000000
  0.416667  0.166667  0.000000     24.000000
  0.500000  0.166667  0.000000     12.000000
  0.250000  0.250000  0.000000     12.000000
  0.333333  0.250000  0.000000     24.000000
  0.416667  0.250000  0.000000     24.000000
  0.500000  0.250000  0.000000     12.000000
  0.333333  0.333333  0.000000     12.000000
  0.416667  0.333333  0.000000     24.000000
  0.500000  0.333333  0.000000     12.000000
  0.416667  0.416667  0.000000     12.000000
  0.500000  0.416667  0.000000     12.000000
  0.500000  0.500000  0.000000      3.000000
  0.083333  0.083333  0.083333      8.000000
  0.166667  0.083333  0.083333     24.000000
  0.250000  0.083333  0.083333     24.000000
  0.333333  0.083333  0.083333     24.000000
  0.416667  0.083333  0.083333     24.000000
  0.500000  0.083333  0.083333     12.000000
  0.166667  0.166667  0.083333     24.000000
  0.250000  0.166667  0.083333     48.000000
  0.333333  0.166667  0.083333     48.000000
  0.416667  0.166667  0.083333     48.000000
  0.500000  0.166667  0.083333     24.000000
  0.250000  0.250000  0.083333     24.000000
  0.333333  0.250000  0.083333     48.000000
  0.416667  0.250000  0.083333     48.000000
  0.500000  0.250000  0.083333     24.000000
  0.333333  0.333333  0.083333     24.000000
  0.416667  0.333333  0.083333     48.000000
  0.500000  0.333333  0.083333     24.000000
  0.416667  0.416667  0.083333     24.000000
  0.500000  0.416667  0.083333     24.000000
  0.500000  0.500000  0.083333      6.000000
  0.166667  0.166667  0.166667      8.000000
  0.250000  0.166667  0.166667     24.000000
  0.333333  0.166667  0.166667     24.000000
  0.416667  0.166667  0.166667     24.000000
  0.500000  0.166667  0.166667     12.000000
  0.250000  0.250000  0.166667     24.000000
  0.333333  0.250000  0.166667     48.000000
  0.416667  0.250000  0.166667     48.000000
  0.500000  0.250000  0.166667     24.000000
  0.333333  0.333333  0.166667     24.000000
  0.416667  0.333333  0.166667     48.000000
[...]
  0.416667  0.333333  0.250000     48.000000
  0.500000  0.333333  0.250000     24.000000
  0.416667  0.416667  0.250000     24.000000
  0.500000  0.416667  0.250000     24.000000
  0.500000  0.500000  0.250000      6.000000
  0.333333  0.333333  0.333333      8.000000
  0.416667  0.333333  0.333333     24.000000
  0.500000  0.333333  0.333333     12.000000
  0.416667  0.416667  0.333333     24.000000
  0.500000  0.416667  0.333333     24.000000
  0.500000  0.500000  0.333333      6.000000
  0.416667  0.416667  0.416667      8.000000
  0.500000  0.416667  0.416667     12.000000
  0.500000  0.500000  0.416667      6.000000
  0.500000  0.500000  0.500000      1.000000

 Following cartesian coordinates:
            Coordinates               Weight
  0.000000  0.000000  0.000000      1.000000
  0.018027 -0.000000  0.000000      6.000000
  0.036055 -0.000000  0.000000      6.000000
  0.054082 -0.000000  0.000000      6.000000
  0.072109 -0.000000  0.000000      6.000000
  0.090136 -0.000000  0.000000      6.000000
  0.108164 -0.000000  0.000000      3.000000
  0.018027  0.018027  0.000000     12.000000
  0.036055  0.018027  0.000000     24.000000
  0.054082  0.018027  0.000000     24.000000
  0.072109  0.018027  0.000000     24.000000
  0.090136  0.018027  0.000000     24.000000
  0.108164  0.018027  0.000000     12.000000
  0.036055  0.036055  0.000000     12.000000
  0.054082  0.036055  0.000000     24.000000
  0.072109  0.036055  0.000000     24.000000
  0.090136  0.036055  0.000000     24.000000
  0.108164  0.036055  0.000000     12.000000
  0.054082  0.054082  0.000000     12.000000
  0.072109  0.054082  0.000000     24.000000
  0.090136  0.054082  0.000000     24.000000
  0.108164  0.054082  0.000000     12.000000
  0.072109  0.072109  0.000000     12.000000
  0.090136  0.072109  0.000000     24.000000
  0.108164  0.072109  0.000000     12.000000
  0.090136  0.090136  0.000000     12.000000
  0.108164  0.090136  0.000000     12.000000
  0.108164  0.108164  0.000000      3.000000
  0.018027  0.018027  0.018027      8.000000
  0.036055  0.018027  0.018027     24.000000
  0.054082  0.018027  0.018027     24.000000
  0.072109  0.018027  0.018027     24.000000
  0.090136  0.018027  0.018027     24.000000
  0.108164  0.018027  0.018027     12.000000
  0.036055  0.036055  0.018027     24.000000
  0.054082  0.036055  0.018027     48.000000
  0.072109  0.036055  0.018027     48.000000
  0.090136  0.036055  0.018027     48.000000
  0.108164  0.036055  0.018027     24.000000
  0.054082  0.054082  0.018027     24.000000
  0.072109  0.054082  0.018027     48.000000
  0.090136  0.054082  0.018027     48.000000
  0.108164  0.054082  0.018027     24.000000
  0.072109  0.072109  0.018027     24.000000
  0.090136  0.072109  0.018027     48.000000
  0.108164  0.072109  0.018027     24.000000
  0.090136  0.090136  0.018027     24.000000
  0.108164  0.090136  0.018027     24.000000
  0.108164  0.108164  0.018027      6.000000
  0.036055  0.036055  0.036055      8.000000
  0.054082  0.036055  0.036055     24.000000
  0.072109  0.036055  0.036055     24.000000
  0.090136  0.036055  0.036055     24.000000
  0.108164  0.036055  0.036055     12.000000
  0.054082  0.054082  0.036055     24.000000
  0.072109  0.054082  0.036055     48.000000
[...]
   0.41666667  0.41666667  0.08333333       0.014
   0.50000000  0.41666667  0.08333333       0.014
   0.50000000  0.50000000  0.08333333       0.003
   0.16666667  0.16666667  0.16666667       0.005
   0.25000000  0.16666667  0.16666667       0.014
   0.33333333  0.16666667  0.16666667       0.014
   0.41666667  0.16666667  0.16666667       0.014
   0.50000000  0.16666667  0.16666667       0.007
   0.25000000  0.25000000  0.16666667       0.014
   0.33333333  0.25000000  0.16666667       0.028
   0.41666667  0.25000000  0.16666667       0.028
   0.50000000  0.25000000  0.16666667       0.014
   0.33333333  0.33333333  0.16666667       0.014
   0.41666667  0.33333333  0.16666667       0.028
[...]
   0.41666667  0.33333333  0.25000000       0.028
   0.50000000  0.33333333  0.25000000       0.014
   0.41666667  0.41666667  0.25000000       0.014
   0.50000000  0.41666667  0.25000000       0.014
   0.50000000  0.50000000  0.25000000       0.003
   0.33333333  0.33333333  0.33333333       0.005
   0.41666667  0.33333333  0.33333333       0.014
   0.50000000  0.33333333  0.33333333       0.007
   0.41666667  0.41666667  0.33333333       0.014
   0.50000000  0.41666667  0.33333333       0.014
   0.50000000  0.50000000  0.33333333       0.003
   0.41666667  0.41666667  0.41666667       0.005
   0.50000000  0.41666667  0.41666667       0.007
   0.50000000  0.50000000  0.41666667       0.003
   0.50000000  0.50000000  0.50000000       0.001

 position of ions in fractional coordinates (direct lattice)
   0.00000000  0.00000000  0.00000000
   0.00000000  0.50000000  0.50000000
   0.50000000  0.00000000  0.50000000
   0.50000000  0.50000000  0.00000000

 position of ions in cartesian coordinates  (Angst):
   0.00000000  0.00000000  0.00000000
   0.00000000  2.31131000  2.31131000
   2.31131000  0.00000000  2.31131000
   2.31131000  2.31131000  0.00000000

 k-point     1 :   0.0000 0.0000 0.0000  plane waves:    2103
 k-point     2 :   0.0833 0.0000 0.0000  plane waves:    2104
 k-point     3 :   0.1667-0.0000 0.0000  plane waves:    2108
 k-point     4 :   0.2500-0.0000 0.0000  plane waves:    2096
 k-point     5 :   0.3333 0.0000 0.0000  plane waves:    2108
 k-point     6 :   0.4167 0.0000 0.0000  plane waves:    2108
 k-point     7 :   0.5000-0.0000 0.0000  plane waves:    2104
 k-point     8 :   0.0833 0.0833 0.0000  plane waves:    2099
 k-point     9 :   0.1667 0.0833 0.0000  plane waves:    2101
 k-point    10 :   0.2500 0.0833 0.0000  plane waves:    2105
 k-point    11 :   0.3333 0.0833 0.0000  plane waves:    2106
 k-point    12 :   0.4167 0.0833 0.0000  plane waves:    2104
 k-point    13 :   0.5000 0.0833 0.0000  plane waves:    2110
 k-point    14 :   0.1667 0.1667 0.0000  plane waves:    2107
 k-point    15 :   0.2500 0.1667 0.0000  plane waves:    2111
 k-point    16 :   0.3333 0.1667 0.0000  plane waves:    2103
 k-point    17 :   0.4167 0.1667 0.0000  plane waves:    2116
 k-point    18 :   0.5000 0.1667 0.0000  plane waves:    2120
 k-point    19 :   0.2500 0.2500 0.0000  plane waves:    2107
 k-point    20 :   0.3333 0.2500 0.0000  plane waves:    2108
 k-point    21 :   0.4167 0.2500 0.0000  plane waves:    2116
 k-point    22 :   0.5000 0.2500 0.0000  plane waves:    2120
 k-point    23 :   0.3333 0.3333 0.0000  plane waves:    2135
 k-point    24 :   0.4167 0.3333 0.0000  plane waves:    2120
 k-point    25 :   0.5000 0.3333 0.0000  plane waves:    2126
 k-point    26 :   0.4167 0.4167 0.0000  plane waves:    2118
 k-point    27 :   0.5000 0.4167 0.0000  plane waves:    2124
 k-point    28 :   0.5000 0.5000 0.0000  plane waves:    2096
 k-point    29 :   0.0833 0.0833 0.0833  plane waves:    2100
 k-point    30 :   0.1667 0.0833 0.0833  plane waves:    2106
 k-point    31 :   0.2500 0.0833 0.0833  plane waves:    2110
 k-point    32 :   0.3333 0.0833 0.0833  plane waves:    2118
 k-point    33 :   0.4167 0.0833 0.0833  plane waves:    2115
 k-point    34 :   0.5000 0.0833 0.0833  plane waves:    2112
 k-point    35 :   0.1667 0.1667 0.0833  plane waves:    2114
 k-point    36 :   0.2500 0.1667 0.0833  plane waves:    2120
 k-point    37 :   0.3333 0.1667 0.0833  plane waves:    2109
 k-point    38 :   0.4167 0.1667 0.0833  plane waves:    2118
 k-point    39 :   0.5000 0.1667 0.0833  plane waves:    2116
 k-point    40 :   0.2500 0.2500 0.0833  plane waves:    2110
 k-point    41 :   0.3333 0.2500 0.0833  plane waves:    2118
 k-point    42 :   0.4167 0.2500 0.0833  plane waves:    2120
 k-point    43 :   0.5000 0.2500 0.0833  plane waves:    2116
 k-point    44 :   0.3333 0.3333 0.0833  plane waves:    2120
 k-point    45 :   0.4167 0.3333 0.0833  plane waves:    2123
 k-point    46 :   0.5000 0.3333 0.0833  plane waves:    2122
 k-point    47 :   0.4167 0.4167 0.0833  plane waves:    2119
 k-point    48 :   0.5000 0.4167 0.0833  plane waves:    2128
 k-point    49 :   0.5000 0.5000 0.0833  plane waves:    2124
 k-point    50 :   0.1667 0.1667 0.1667  plane waves:    2124
 k-point    51 :   0.2500 0.1667 0.1667  plane waves:    2116
 k-point    52 :   0.3333 0.1667 0.1667  plane waves:    2118
 k-point    53 :   0.4167 0.1667 0.1667  plane waves:    2125
 k-point    54 :   0.5000 0.1667 0.1667  plane waves:    2106
 k-point    55 :   0.2500 0.2500 0.1667  plane waves:    2114
 k-point    56 :   0.3333 0.2500 0.1667  plane waves:    2124
 k-point    57 :   0.4167 0.2500 0.1667  plane waves:    2129
 k-point    58 :   0.5000 0.2500 0.1667  plane waves:    2122
 k-point    59 :   0.3333 0.3333 0.1667  plane waves:    2114
 k-point    60 :   0.4167 0.3333 0.1667  plane waves:    2113
[...]
 k-point    70 :   0.4167 0.3333 0.2500  plane waves:    2120
 k-point    71 :   0.5000 0.3333 0.2500  plane waves:    2128
 k-point    72 :   0.4167 0.4167 0.2500  plane waves:    2122
 k-point    73 :   0.5000 0.4167 0.2500  plane waves:    2114
 k-point    74 :   0.5000 0.5000 0.2500  plane waves:    2112
 k-point    75 :   0.3333 0.3333 0.3333  plane waves:    2124
 k-point    76 :   0.4167 0.3333 0.3333  plane waves:    2135
 k-point    77 :   0.5000 0.3333 0.3333  plane waves:    2120
 k-point    78 :   0.4167 0.4167 0.3333  plane waves:    2141
 k-point    79 :   0.5000 0.4167 0.3333  plane waves:    2130
 k-point    80 :   0.5000 0.5000 0.3333  plane waves:    2136
 k-point    81 :   0.4167 0.4167 0.4167  plane waves:    2140
 k-point    82 :   0.5000 0.4167 0.4167  plane waves:    2142
 k-point    83 :   0.5000 0.5000 0.4167  plane waves:    2128
 k-point    84 :   0.5000 0.5000 0.5000  plane waves:    2176

 maximum and minimum number of plane-waves per node :      2176     2096

 maximum number of plane-waves:      2176
 maximum index in each direction:
   IXMAX=    7   IYMAX=    7   IZMAX=    7
   IXMIN=   -8   IYMIN=   -8   IZMIN=   -8

 serial   3D FFT for wavefunctions
 parallel 3D FFT for charge:
    minimum data exchange during FFTs selected (reduces bandwidth)

 Broyden mixing: mesh for mixing (old mesh)
   NGX = 15   NGY = 15   NGZ = 15
  (NGX  = 48   NGY  = 48   NGZ  = 48)
  gives a total of   3375 points

 charge density for first step will be calculated from the start-wavefunctions

 Maximum index for augmentation-charges          177 (set IRDMAX)

 initial charge from wavefunction
 First call to EWALD:  gamma=   0.383
 Maximum number of real-space cells 3x 3x 3
 Maximum number of reciprocal cells 3x 3x 3

--------------------------------------- Ionic step        1  -------------------------------------------

--------------------------------------- Iteration      1(   1)  ---------------------------------------

 eigenvalue-minimisations  :  8400
 total energy-change (2. order) :-0.1251716E+00  (-0.2584537E-07)
 number of electron      31.9999079 magnetization
 augmentation part       11.4349045 magnetization

 Broyden mixing:
  rms(total) = 0.57426E-04    rms(broyden)= 0.57351E-04
  rms(prec ) = 0.90833E-04
  weight for this iteration     100.00

 Free energy of the ion-electron system (eV)
  alpha Z        PSCENC =        25.19147649
  Ewald energy   TEWEN  =     -1828.11759585
  -Hartree energ DENC   =     -1629.82111075
  -exchange      EXHF   =         0.00000000
  -V(xc)+E(xc)   XCENC  =       191.73754395
  PAW double counting   =      3155.69785165    -3207.19539779
  entropy T*S    EENTRO =        -0.00000000
  eigenvalues    EBANDS =      -528.82187506
  atomic energy  EATOM  =      3821.20393578
  Solvation  Ediel_sol  =         0.00000000
  free energy    TOTEN  =        -0.12517158 eV

  energy without entropy =       -0.12517158  energy(sigma->0) =       -0.12517158

--------------------------------------- Iteration      1(   2)  ---------------------------------------

 eigenvalue-minimisations  :  5904
 total energy-change (2. order) :-0.4396497E-08  (-0.3411428E-08)
 number of electron      31.9999079 magnetization
 augmentation part       11.4349045 magnetization

 Free energy of the ion-electron system (eV)
  alpha Z        PSCENC =        25.19147649
  Ewald energy   TEWEN  =     -1828.11759585
  -Hartree energ DENC   =     -1629.81806884
  -exchange      EXHF   =         0.00000000
  -V(xc)+E(xc)   XCENC  =       191.73736180
  PAW double counting   =      3155.69516920    -3207.19239903
  entropy T*S    EENTRO =        -0.00000000
  eigenvalues    EBANDS =      -528.82505113
  atomic energy  EATOM  =      3821.20393578
  Solvation  Ediel_sol  =         0.00000000
  free energy    TOTEN  =        -0.12517158 eV

  energy without entropy =       -0.12517158  energy(sigma->0) =       -0.12517158

 average (electrostatic) potential at core
  the test charge radii are     0.7312
  (the norm of the test charge is              1.0000)
       1-110.1252       2-110.1252       3-110.1252       4-110.1252

 E-fermi : -10.1938     XC(G=0):  -6.0943     alpha+bet : -2.5618

 val. band max:      -10.5395984851   @ k =   0.0000   0.0000   0.0000
 cond. band min:       0.9061020663   @ k =   0.0000   0.0000   0.0000
 fundamental gap:     11.4457005514
 Fermi energy:       -10.1937645586

 k-point     1 :       0.0000    0.0000    0.0000
  band No.  band energies     occupation
      1     -33.8853      2.00000
      2     -33.8116      2.00000
      3     -33.8116      2.00000
      4     -33.8116      2.00000
      5     -11.0349      2.00000
      6     -11.0349      2.00000
      7     -11.0349      2.00000
      8     -10.7107      2.00000
      9     -10.7107      2.00000
     10     -10.7107      2.00000
     11     -10.7107      2.00000
     12     -10.7107      2.00000
     13     -10.7107      2.00000
     14     -10.5396      2.00000
     15     -10.5396      2.00000
     16     -10.5396      2.00000
     17       0.9061      0.00000
     18       7.4524      0.00000
     19       7.4524      0.00000
     20       7.4524      0.00000
     21       7.9267      0.00000
     22       7.9267      0.00000
     23       7.9267      0.00000
     24      11.7987      0.00000
     25      11.7987      0.00000
     26      11.7987      0.00000
     27      14.8158      0.00000
     28      14.8158      0.00000
     29      14.8158      0.00000
     30      14.8158      0.00000
     31      14.8158      0.00000
     32      14.8158      0.00000
     33      17.8892      0.00000
     34      17.8892      0.00000
     35      17.8892      0.00000
     36      18.7920      0.00000
     37      18.7920      0.00000
     38      18.7920      0.00000
     39      19.8445      0.00000
     40      21.8363      0.00000
     41      21.8363      0.00000
     42      21.8363      0.00000
     43      23.6859      0.00000
     44      23.6859      0.00000
     45      24.5094      0.00000
     46      29.0822      0.00000
     47      29.0822      0.00000
     48      29.0822      0.00000

[...]

 k-point    84 :       0.5000    0.5000    0.5000
  band No.  band energies     occupation
      1     -33.8294      2.00000
      2     -33.8294      2.00000
      3     -33.8294      2.00000
      4     -33.8294      2.00000
      5     -11.0903      2.00000
      6     -11.0903      2.00000
      7     -11.0903      2.00000
      8     -11.0903      2.00000
      9     -10.5975      2.00000
     10     -10.5975      2.00000
     11     -10.5975      2.00000
     12     -10.5975      2.00000
     13     -10.5975      2.00000
     14     -10.5975      2.00000
     15     -10.5975      2.00000
     16     -10.5975      2.00000
     17       6.1170      0.00000
     18       6.1170      0.00000
     19       6.1170      0.00000
     20       6.1170      0.00000
     21       6.4828      0.00000
     22       6.4828      0.00000
     23       6.4828      0.00000
     24       6.4828      0.00000
     25      16.6293      0.00000
     26      16.6293      0.00000
     27      16.6293      0.00000
     28      16.6293      0.00000
     29      16.6293      0.00000
     30      16.6293      0.00000
     31      16.6293      0.00000
     32      16.6293      0.00000
     33      18.5031      0.00000
     34      18.5031      0.00000
     35      18.5031      0.00000
     36      18.5031      0.00000
     37      20.6151      0.00000
     38      20.6151      0.00000
     39      20.6151      0.00000
     40      20.6151      0.00000
     41      20.6151      0.00000
     42      20.6151      0.00000
     43      20.6151      0.00000
     44      20.6151      0.00000
     45      23.0358      0.00000
     46      23.0358      0.00000
     47      23.0358      0.00000
     48      23.0358      0.00000

 soft charge-density along one line, spin component           1
         0         1         2         3         4         5         6         7         8         9
 total charge-density along one line

------------------------ aborting loop because EDIFF is reached ----------------------------------------

  FORCE on cell =-STRESS in cart. coord.  units (eV):
  Direction    XX          YY          ZZ          XY          YZ          ZX
  Alpha Z    25.19148    25.19148    25.19148
  Ewald    -609.37280  -609.37280  -609.37280     0.00000     0.00000     0.00000
  Hartree   543.27251   543.27251   543.27251    -0.00000    -0.00000    -0.00000
  E(xc)    -204.78646  -204.78646  -204.78646    -0.00000    -0.00000     0.00000
  Local    -727.92604  -727.92604  -727.92604    -0.00000    -0.00000     0.00000
  n-local    29.75068    29.76039    29.75863    -0.00534    -0.00592    -0.00368
  augment   375.25761   375.25761   375.25761     0.00000    -0.00000    -0.00000
  Kinetic   568.12210   568.61217   568.98278    -0.05849    -0.05612    -0.03699
  Fock        0.00000     0.00000     0.00000     0.00000     0.00000     0.00000
  Total      -0.03479    -0.03479    -0.03479    -0.00000     0.00000    -0.00000
  in kB      -0.56429    -0.56429    -0.56429    -0.00000     0.00000    -0.00000

 VOLUME and BASIS-vectors are now :
  energy-cutoff  :      446.69
  volume of cell :       98.78
      direct lattice vectors                 reciprocal lattice vectors
     4.622620000  0.000000000  0.000000000     0.216327537 -0.000000000  0.000000000
     0.000000000  4.622620000  0.000000000     0.000000000  0.216327537  0.000000000
     0.000000000  0.000000000  4.622620000    -0.000000000 -0.000000000  0.216327537

  length of vectors
     4.622620000  4.622620000  4.622620000     0.216327537  0.216327537  0.216327537

 FORCES acting on ions
    electron-ion (+dipol)            ewald-force                    non-local-force                 convergence-correction
   -.273E-14 -.638E-14 0.797E-14   -.973E-16 -.174E-14 -.764E-15   -.973E-25 -.174E-27 0.441E-25   -.394E-14 0.306E-14 0.245E-14
   0.337E-14 0.970E-12 0.985E-12   -.344E-15 0.271E-14 0.140E-14   -.410E-26 0.899E-26 -.607E-25   -.566E-14 -.316E-14 -.176E-13
   0.971E-12 -.386E-14 -.291E-11   -.367E-16 -.339E-14 0.145E-14   -.291E-25 0.753E-25 0.434E-25   0.174E-13 0.586E-14 -.507E-14
   0.972E-12 -.321E-11 -.349E-11   -.284E-15 0.106E-14 -.368E-14   0.131E-25 -.451E-25 -.819E-25   0.113E-13 0.411E-14 0.116E-13
   0.194E-11 -.225E-11 -.541E-11   -.762E-15 -.137E-14 -.160E-14   -.117E-24 0.390E-25 -.551E-25   0.191E-13 0.987E-14 -.861E-14

 POSITION                                       TOTAL-FORCE (eV/Angst)
      0.00000      0.00000      0.00000         0.000000      0.000000      0.000000
      0.00000      2.31131      2.31131         0.000000      0.000000     -0.000000
      2.31131      0.00000      2.31131        -0.000000     -0.000000      0.000000
      2.31131      2.31131      0.00000        -0.000000     -0.000000     -0.000000
    total drift:                                0.000000     -0.000000     -0.000000

  FREE ENERGIE OF THE ION-ELECTRON SYSTEM (eV)
  free  energy   TOTEN  =        -0.12517158 eV

  energy  without entropy=       -0.12517158  energy(sigma->0) =       -0.12517158

 writing wavefunctions