 vasp.6.4.3 19Mar24 (build Jun 26 2024 13:02:28) complex

 executed on             LinuxIFC date 2025.08.08  18:39:44

 INCAR:
   ENCUT = 223.6897
   IBRION = -1
   ISMEAR = 0
   ISYM = 2
   LCHARG = True
   LWAVE = True
   SIGMA = 0.05
   SYSTEM = Sb

 POTCAR:  PAW_PBE Sb 06Sep2000
|           W    W    AA    RRRRR   N    N  II  N    N   GGGG   !!!           |
|           W    W   A  A   R    R  NN   N  II  NN   N  G    G  !!!           |
|           W    W  A    A  R    R  N N  N  II  N N  N  G       !!!           |
|           W WW W  AAAAAA  RRRRR   N  N N  II  N  N N  G  GGG   !            |
|           WW  WW  A    A  R   R   N   NN  II  N   NN  G    G                |
|           W    W  A    A  R    R  N    N  II  N    N   GGGG   !!!           |
|     For optimal performance we recommend to set                             |
|       NCORE = 2 up to number-of-cores-per-socket                            |
|     This setting can greatly improve the performance of VASP for DFT.       |
|     The default, NCORE=1 might be grossly inefficient on modern             |
|     multi-core architectures or massively parallel machines. Do your        |
|     Unfortunately you need to use the default for GW and RPA                |
|     calculations (for HF NCORE is supported but not extensively tested      |
|     yet).                                                                   |

 POTCAR:  PAW_PBE Sb 06Sep2000
   VRHFIN =Sb: s2p3

   TITEL  = PAW_PBE Sb 06Sep2000
   POMASS =  121.750; ZVAL   =    5.000    mass and valenz
   ENMAX  =  172.069; ENMIN  =  129.052 eV

PAW_PBE Sb 06Sep2000                    :

 POSCAR: Sb6
  positions in direct lattice

 exchange-correlation table for PE
   RHO(1)=    0.500       N(1)  =     2000
   RHO(2)=  100.500       N(2)  =     4000

 ion  position               nearest neighbor table
   1  0.000  0.000  0.233-   4 2.96   4 2.96   4 2.96   6 3.42   6 3.42   6 3.42
   2  0.000  0.000  0.767-   5 2.96   5 2.96   5 2.96   3 3.42   3 3.42   3 3.42
   3  0.667  0.333  0.567-   6 2.96   6 2.96   6 2.96   2 3.42   2 3.42   2 3.42
   4  0.667  0.333  0.100-   1 2.96   1 2.96   1 2.96   5 3.42   5 3.42   5 3.42
   5  0.333  0.667  0.900-   2 2.96   2 2.96   2 2.96   4 3.42   4 3.42   4 3.42
   6  0.333  0.667  0.433-   3 2.96   3 2.96   3 2.96   1 3.42   1 3.42   1 3.42

  LATTYP: Found a hexagonal cell.
 ALAT       =     4.3804700000
 C/A-ratio  =     2.6202759065

  Lattice vectors:

 A1 = (   4.3804700000,   0.0000000000,   0.0000000000)
 A2 = (  -2.1902350000,   3.7935983005,   0.0000000000)
 A3 = (   0.0000000000,   0.0000000000,  11.4780400000)

Analysis of symmetry for initial positions (statically):
 Subroutine PRICEL returns:
 Original cell was already a primitive cell.

 Routine SETGRP: Setting up the symmetry group for a
 hexagonal supercell.

 Subroutine GETGRP returns: Found 12 space group operations
 (whereof 12 operations were pure point group operations)
 out of a pool of 24 trial point group operations.

The static configuration has the point symmetry D_3d.

Analysis of symmetry for dynamics (positions and initial velocities):
 Subroutine PRICEL returns:
 Original cell was already a primitive cell.

 Routine SETGRP: Setting up the symmetry group for a
 hexagonal supercell.

 Subroutine GETGRP returns: Found 12 space group operations
 (whereof 12 operations were pure point group operations)
 out of a pool of 24 trial point group operations.

The dynamic configuration has the point symmetry D_3d.

 Subroutine INISYM returns: Found 12 space group operations
 (whereof 12 operations are pure point group operations),
 and found     1 'primitive' translations

                                     Primitive cell

  volume of cell :     190.7391

  direct lattice vectors                    reciprocal lattice vectors
     4.380470000  0.000000000  0.000000000     0.228286006  0.131800987  0.000000000
    -2.190235000  3.793598301  0.000000000     0.000000000  0.263601974  0.000000000
     0.000000000  0.000000000 11.478040000    -0.000000000 -0.000000000  0.087122889

  length of vectors
     4.380470000  4.380470000 11.478040000     0.263601974  0.263601974  0.087122889

  position of ions in fractional coordinates (direct lattice)
     0.000000000  0.000000000  0.233320000
     0.000000000  0.000000000  0.766680000
     0.666666667  0.333333333  0.566660000
     0.666666667  0.333333333  0.100010000
     0.333333333  0.666666667  0.899990000
     0.333333333  0.666666667  0.433340000

  ion indices of the primitive-cell ions
   primitive index   ion index
                 1           1
                 2           2
                 3           3
                 4           4
                 5           5
                 6           6

 KPOINTS: Automatic kpoint scheme

Automatic generation of k-mesh.
 Grid dimensions read from file:
 generate k-points for:    8    8    8

 Generating k-lattice:

  Cartesian coordinates                     Fractional coordinates (reciprocal lattice)
     0.028535751  0.016475123  0.000000000     0.125000000  0.000000000  0.000000000
     0.000000000  0.032950247  0.000000000     0.000000000  0.125000000  0.000000000
    -0.000000000 -0.000000000  0.010890361     0.000000000  0.000000000  0.125000000

  Length of vectors
     0.032950247  0.032950247  0.010890361

  Shift w.r.t. Gamma in fractional coordinates (k-lattice)
     0.000000000  0.000000000  0.000000000

 Subroutine IBZKPT returns following result:

 Found     65 irreducible k-points:

 Following reciprocal coordinates:
            Coordinates               Weight
  0.000000  0.000000  0.000000      1.000000
  0.125000 -0.000000  0.000000      6.000000
  0.250000 -0.000000  0.000000      6.000000
  0.375000  0.000000  0.000000      6.000000
  0.500000 -0.000000  0.000000      3.000000
  0.125000  0.125000  0.000000      6.000000
  0.250000  0.125000  0.000000     12.000000
  0.375000  0.125000  0.000000     12.000000
  0.250000  0.250000  0.000000      6.000000
  0.375000  0.250000  0.000000      6.000000
 -0.000000  0.000000  0.125000      2.000000
  0.125000 -0.000000  0.125000      6.000000
 -0.000000  0.125000  0.125000      6.000000
  0.250000 -0.000000  0.125000      6.000000
 -0.000000  0.250000  0.125000      6.000000
  0.375000  0.000000  0.125000      6.000000
 -0.000000  0.375000  0.125000      6.000000
  0.500000 -0.000000  0.125000      6.000000
  0.125000  0.125000  0.125000     12.000000
  0.250000  0.125000  0.125000     12.000000
 -0.125000  0.375000  0.125000     12.000000
  0.375000  0.125000  0.125000     12.000000
 -0.125000  0.500000  0.125000     12.000000
  0.250000  0.250000  0.125000     12.000000
  0.375000  0.250000  0.125000     12.000000
 -0.000000  0.000000  0.250000      2.000000
  0.125000 -0.000000  0.250000      6.000000
 -0.000000  0.125000  0.250000      6.000000
  0.250000 -0.000000  0.250000      6.000000
 -0.000000  0.250000  0.250000      6.000000
  0.375000  0.000000  0.250000      6.000000
 -0.000000  0.375000  0.250000      6.000000
  0.500000 -0.000000  0.250000      6.000000
  0.125000  0.125000  0.250000     12.000000
  0.250000  0.125000  0.250000     12.000000
 -0.125000  0.375000  0.250000     12.000000
  0.375000  0.125000  0.250000     12.000000
 -0.125000  0.500000  0.250000     12.000000
  0.250000  0.250000  0.250000     12.000000
  0.375000  0.250000  0.250000     12.000000
 -0.000000  0.000000  0.375000      2.000000
  0.125000  0.000000  0.375000      6.000000
 -0.000000  0.125000  0.375000      6.000000
  0.250000 -0.000000  0.375000      6.000000
 -0.000000  0.250000  0.375000      6.000000
  0.375000 -0.000000  0.375000      6.000000
 -0.000000  0.375000  0.375000      6.000000
  0.500000 -0.000000  0.375000      6.000000
  0.125000  0.125000  0.375000     12.000000
  0.250000  0.125000  0.375000     12.000000
 -0.125000  0.375000  0.375000     12.000000
  0.375000  0.125000  0.375000     12.000000
 -0.125000  0.500000  0.375000     12.000000
  0.250000  0.250000  0.375000     12.000000
  0.375000  0.250000  0.375000     12.000000
 -0.000000  0.000000  0.500000      1.000000
  0.125000  0.000000  0.500000      6.000000
  0.250000 -0.000000  0.500000      6.000000
  0.375000 -0.000000  0.500000      6.000000
  0.500000 -0.000000  0.500000      3.000000
  0.125000  0.125000  0.500000      6.000000
  0.250000  0.125000  0.500000     12.000000
  0.375000  0.125000  0.500000     12.000000
  0.250000  0.250000  0.500000      6.000000
  0.375000  0.250000  0.500000      6.000000

 Following cartesian coordinates:
            Coordinates               Weight
  0.000000  0.000000  0.000000      1.000000
  0.028536  0.016475  0.000000      6.000000
  0.057072  0.032950  0.000000      6.000000
  0.085607  0.049425  0.000000      6.000000
  0.114143  0.065900  0.000000      3.000000
  0.028536  0.049425  0.000000      6.000000
  0.057072  0.065900  0.000000     12.000000
  0.085607  0.082376  0.000000     12.000000
  0.057072  0.098851  0.000000      6.000000
  0.085607  0.115326  0.000000      6.000000
 -0.000000 -0.000000  0.010890      2.000000
  0.028536  0.016475  0.010890      6.000000
 -0.000000  0.032950  0.010890      6.000000
  0.057072  0.032950  0.010890      6.000000
 -0.000000  0.065900  0.010890      6.000000
  0.085607  0.049425  0.010890      6.000000
 -0.000000  0.098851  0.010890      6.000000
  0.114143  0.065900  0.010890      6.000000
  0.028536  0.049425  0.010890     12.000000
  0.057072  0.065900  0.010890     12.000000
 -0.028536  0.082376  0.010890     12.000000
  0.085607  0.082376  0.010890     12.000000
 -0.028536  0.115326  0.010890     12.000000
  0.057072  0.098851  0.010890     12.000000
  0.085607  0.115326  0.010890     12.000000
 -0.000000 -0.000000  0.021781      2.000000
  0.028536  0.016475  0.021781      6.000000
 -0.000000  0.032950  0.021781      6.000000
  0.057072  0.032950  0.021781      6.000000
 -0.000000  0.065900  0.021781      6.000000
  0.085607  0.049425  0.021781      6.000000
 -0.000000  0.098851  0.021781      6.000000
  0.114143  0.065900  0.021781      6.000000
  0.028536  0.049425  0.021781     12.000000
  0.057072  0.065900  0.021781     12.000000
 -0.028536  0.082376  0.021781     12.000000
  0.085607  0.082376  0.021781     12.000000
 -0.028536  0.115326  0.021781     12.000000
  0.057072  0.098851  0.021781     12.000000
  0.085607  0.115326  0.021781     12.000000
 -0.000000 -0.000000  0.032671      2.000000
  0.028536  0.016475  0.032671      6.000000
 -0.000000  0.032950  0.032671      6.000000
  0.057072  0.032950  0.032671      6.000000
 -0.000000  0.065900  0.032671      6.000000
  0.085607  0.049425  0.032671      6.000000
 -0.000000  0.098851  0.032671      6.000000
  0.114143  0.065900  0.032671      6.000000
  0.028536  0.049425  0.032671     12.000000
  0.057072  0.065900  0.032671     12.000000
 -0.028536  0.082376  0.032671     12.000000
  0.085607  0.082376  0.032671     12.000000
 -0.028536  0.115326  0.032671     12.000000
  0.057072  0.098851  0.032671     12.000000
  0.085607  0.115326  0.032671     12.000000
 -0.000000 -0.000000  0.043561      1.000000
  0.028536  0.016475  0.043561      6.000000
[...]
   0.37500000  0.12500000  0.25000000       0.023
  -0.12500000  0.50000000  0.25000000       0.023
   0.25000000  0.25000000  0.25000000       0.023
   0.37500000  0.25000000  0.25000000       0.023
  -0.00000000  0.00000000  0.37500000       0.004
   0.12500000  0.00000000  0.37500000       0.012
  -0.00000000  0.12500000  0.37500000       0.012
   0.25000000 -0.00000000  0.37500000       0.012
  -0.00000000  0.25000000  0.37500000       0.012
   0.37500000 -0.00000000  0.37500000       0.012
  -0.00000000  0.37500000  0.37500000       0.012
   0.50000000 -0.00000000  0.37500000       0.012
   0.12500000  0.12500000  0.37500000       0.023
   0.25000000  0.12500000  0.37500000       0.023
  -0.12500000  0.37500000  0.37500000       0.023
   0.37500000  0.12500000  0.37500000       0.023
  -0.12500000  0.50000000  0.37500000       0.023
   0.25000000  0.25000000  0.37500000       0.023
   0.37500000  0.25000000  0.37500000       0.023
  -0.00000000  0.00000000  0.50000000       0.002
   0.12500000  0.00000000  0.50000000       0.012
   0.25000000 -0.00000000  0.50000000       0.012
   0.37500000 -0.00000000  0.50000000       0.012
   0.50000000 -0.00000000  0.50000000       0.006
   0.12500000  0.12500000  0.50000000       0.012
   0.25000000  0.12500000  0.50000000       0.023
   0.37500000  0.12500000  0.50000000       0.023
   0.25000000  0.25000000  0.50000000       0.012
   0.37500000  0.25000000  0.50000000       0.012

 position of ions in fractional coordinates (direct lattice)
   0.00000000  0.00000000  0.23332000
   0.00000000  0.00000000  0.76668000
   0.66666667  0.33333333  0.56666000
   0.66666667  0.33333333  0.10001000
   0.33333333  0.66666667  0.89999000
   0.33333333  0.66666667  0.43334000

 position of ions in cartesian coordinates  (Angst):
   0.00000000  0.00000000  2.67805629
   0.00000000  0.00000000  8.79998371
   2.19023500  1.26453277  6.50414615
   2.19023500  1.26453277  1.14791878
   0.00000000  2.52906553 10.33012122
   0.00000000  2.52906553  4.97389385

 k-point     1 :   0.0000 0.0000 0.0000  plane waves:    1443
 k-point     2 :   0.1250-0.0000 0.0000  plane waves:    1449
 k-point     3 :   0.2500-0.0000 0.0000  plane waves:    1447
 k-point     4 :   0.3750 0.0000 0.0000  plane waves:    1444
 k-point     5 :   0.5000-0.0000 0.0000  plane waves:    1456
 k-point     6 :   0.1250 0.1250 0.0000  plane waves:    1453
 k-point     7 :   0.2500 0.1250 0.0000  plane waves:    1446
 k-point     8 :   0.3750 0.1250 0.0000  plane waves:    1438
 k-point     9 :   0.2500 0.2500 0.0000  plane waves:    1433
 k-point    10 :   0.3750 0.2500 0.0000  plane waves:    1446
 k-point    11 :  -0.0000 0.0000 0.1250  plane waves:    1456
 k-point    12 :   0.1250-0.0000 0.1250  plane waves:    1453
 k-point    13 :  -0.0000 0.1250 0.1250  plane waves:    1453
 k-point    14 :   0.2500-0.0000 0.1250  plane waves:    1454
 k-point    15 :  -0.0000 0.2500 0.1250  plane waves:    1454
 k-point    16 :   0.3750 0.0000 0.1250  plane waves:    1441
 k-point    17 :  -0.0000 0.3750 0.1250  plane waves:    1441
 k-point    18 :   0.5000-0.0000 0.1250  plane waves:    1468
 k-point    19 :   0.1250 0.1250 0.1250  plane waves:    1455
 k-point    20 :   0.2500 0.1250 0.1250  plane waves:    1446
 k-point    21 :  -0.1250 0.3750 0.1250  plane waves:    1446
 k-point    22 :   0.3750 0.1250 0.1250  plane waves:    1447
 k-point    23 :  -0.1250 0.5000 0.1250  plane waves:    1447
 k-point    24 :   0.2500 0.2500 0.1250  plane waves:    1438
 k-point    25 :   0.3750 0.2500 0.1250  plane waves:    1446
 k-point    26 :  -0.0000 0.0000 0.2500  plane waves:    1468
 k-point    27 :   0.1250-0.0000 0.2500  plane waves:    1454
 k-point    28 :  -0.0000 0.1250 0.2500  plane waves:    1454
 k-point    29 :   0.2500-0.0000 0.2500  plane waves:    1459
 k-point    30 :  -0.0000 0.2500 0.2500  plane waves:    1459
 k-point    31 :   0.3750 0.0000 0.2500  plane waves:    1446
 k-point    32 :  -0.0000 0.3750 0.2500  plane waves:    1446
 k-point    33 :   0.5000-0.0000 0.2500  plane waves:    1448
 k-point    34 :   0.1250 0.1250 0.2500  plane waves:    1456
 k-point    35 :   0.2500 0.1250 0.2500  plane waves:    1449
 k-point    36 :  -0.1250 0.3750 0.2500  plane waves:    1449
 k-point    37 :   0.3750 0.1250 0.2500  plane waves:    1447
 k-point    38 :  -0.1250 0.5000 0.2500  plane waves:    1447
 k-point    39 :   0.2500 0.2500 0.2500  plane waves:    1442
 k-point    40 :   0.3750 0.2500 0.2500  plane waves:    1443
 k-point    41 :  -0.0000 0.0000 0.3750  plane waves:    1486
 k-point    42 :   0.1250 0.0000 0.3750  plane waves:    1464
 k-point    43 :  -0.0000 0.1250 0.3750  plane waves:    1464
 k-point    44 :   0.2500-0.0000 0.3750  plane waves:    1448
 k-point    45 :  -0.0000 0.2500 0.3750  plane waves:    1448
 k-point    46 :   0.3750-0.0000 0.3750  plane waves:    1445
 k-point    47 :  -0.0000 0.3750 0.3750  plane waves:    1445
 k-point    48 :   0.5000-0.0000 0.3750  plane waves:    1438
 k-point    49 :   0.1250 0.1250 0.3750  plane waves:    1453
 k-point    50 :   0.2500 0.1250 0.3750  plane waves:    1452
 k-point    51 :  -0.1250 0.3750 0.3750  plane waves:    1452
 k-point    52 :   0.3750 0.1250 0.3750  plane waves:    1444
 k-point    53 :  -0.1250 0.5000 0.3750  plane waves:    1444
 k-point    54 :   0.2500 0.2500 0.3750  plane waves:    1441
 k-point    55 :   0.3750 0.2500 0.3750  plane waves:    1439
 k-point    56 :  -0.0000 0.0000 0.5000  plane waves:    1480
 k-point    57 :   0.1250 0.0000 0.5000  plane waves:    1468
 k-point    58 :   0.2500-0.0000 0.5000  plane waves:    1450
 k-point    59 :   0.3750-0.0000 0.5000  plane waves:    1452
 k-point    60 :   0.5000-0.0000 0.5000  plane waves:    1448
 k-point    61 :   0.1250 0.1250 0.5000  plane waves:    1464
 k-point    62 :   0.2500 0.1250 0.5000  plane waves:    1448
 k-point    63 :   0.3750 0.1250 0.5000  plane waves:    1446
 k-point    64 :   0.2500 0.2500 0.5000  plane waves:    1444
 k-point    65 :   0.3750 0.2500 0.5000  plane waves:    1436

 maximum and minimum number of plane-waves per node :      1486     1433

 maximum number of plane-waves:      1486
 maximum index in each direction:
   IXMAX=    5   IYMAX=    5   IZMAX=   13
   IXMIN=   -5   IYMIN=   -5   IZMIN=  -14

 serial   3D FFT for wavefunctions
 parallel 3D FFT for charge:
    minimum data exchange during FFTs selected (reduces bandwidth)

 Broyden mixing: mesh for mixing (old mesh)
   NGX = 11   NGY = 11   NGZ = 27
  (NGX  = 32   NGY  = 32   NGZ  = 84)
  gives a total of   3267 points

 charge density for first step will be calculated from the start-wavefunctions

 Maximum index for augmentation-charges          229 (set IRDMAX)

 initial charge from wavefunction
 First call to EWALD:  gamma=   0.308
 Maximum number of real-space cells 4x 4x 2
 Maximum number of reciprocal cells 2x 2x 5

--------------------------------------- Ionic step        1  -------------------------------------------

--------------------------------------- Iteration      1(   1)  ---------------------------------------

 eigenvalue-minimisations  :  7488
 total energy-change (2. order) :-0.2484568E+02  (-0.3412322E-05)
 number of electron      29.9999960 magnetization
 augmentation part       -4.8018018 magnetization

 Broyden mixing:
  rms(total) = 0.33539E-03    rms(broyden)= 0.33528E-03
  rms(prec ) = 0.53494E-03
  weight for this iteration     100.00

 Free energy of the ion-electron system (eV)
  alpha Z        PSCENC =       -11.24883989
  Ewald energy   TEWEN  =      -961.64015957
  -Hartree energ DENC   =       -39.03148232
  -exchange      EXHF   =         0.00000000
  -V(xc)+E(xc)   XCENC  =      -275.75569544
  PAW double counting   =      1804.77393539    -1481.34558776
  entropy T*S    EENTRO =        -0.00078479
  eigenvalues    EBANDS =        39.71238115
  atomic energy  EATOM  =       899.69055111
  Solvation  Ediel_sol  =         0.00000000
  free energy    TOTEN  =       -24.84568212 eV

  energy without entropy =      -24.84489733  energy(sigma->0) =      -24.84528972

--------------------------------------- Iteration      1(   2)  ---------------------------------------

 eigenvalue-minimisations  :  5040
 total energy-change (2. order) : 0.7786055E-06  (-0.2490306E-06)
 number of electron      29.9999960 magnetization
 augmentation part       -4.8018018 magnetization

 Free energy of the ion-electron system (eV)
  alpha Z        PSCENC =       -11.24883989
  Ewald energy   TEWEN  =      -961.64015957
  -Hartree energ DENC   =       -39.03263138
  -exchange      EXHF   =         0.00000000
  -V(xc)+E(xc)   XCENC  =      -275.75557766
  PAW double counting   =      1804.82365153    -1481.39528289
  entropy T*S    EENTRO =        -0.00078463
  eigenvalues    EBANDS =        39.71339203
  atomic energy  EATOM  =       899.69055111
  Solvation  Ediel_sol  =         0.00000000
  free energy    TOTEN  =       -24.84568134 eV

  energy without entropy =      -24.84489671  energy(sigma->0) =      -24.84528903

 average (electrostatic) potential at core
  the test charge radii are     1.1712
  (the norm of the test charge is              1.0000)
       1 -86.4523       2 -86.4523       3 -86.4523       4 -86.4524       5 -86.4524
       6 -86.4523

 E-fermi :   6.6764     XC(G=0):  -9.3114     alpha+bet :-11.2612

 val. band max:        6.6629649638   @ k =  -0.0000   0.1250   0.1250
 cond. band min:       6.7144293637   @ k =  -0.0000   0.2500   0.3750
 fundamental gap:      0.0514643999
 Fermi energy:         6.6763976918

 k-point     1 :       0.0000    0.0000    0.0000
  band No.  band energies     occupation
      1      -5.6790      2.00000
      2      -4.8071      2.00000
      3      -4.8069      2.00000
      4      -1.1475      2.00000
      5      -1.1475      2.00000
      6       1.6011      2.00000
      7       4.7188      2.00000
      8       4.9547      2.00000
      9       4.9547      2.00000
     10       5.2205      2.00000
     11       5.2205      2.00000
     12       5.2207      2.00000
     13       5.2207      2.00000
     14       5.9407      2.00000
     15       5.9409      2.00000
     16       7.4156      0.00000
     17       7.4156      0.00000
     18       7.4156      0.00000
     19       7.4156      0.00000
     20       7.9902      0.00000
     21       7.9903      0.00000
     22       8.6758      0.00000
     23       9.2621      0.00000
     24       9.2621      0.00000
     25      11.7959      0.00000
     26      11.7959      0.00000
     27      11.9221      0.00000
     28      12.2620      0.00000
     29      12.2621      0.00000
     30      13.3794      0.00000
     31      13.4443      0.00000
     32      13.4443      0.00000
     33      13.4443      0.00000
     34      13.4443      0.00000
     35      13.4789      0.00000
     36      13.4789      0.00000
     37      14.1109      0.00000
     38      16.9560      0.00000
     39      16.9561      0.00000
     40      17.1713      0.00000
     41      17.1713      0.00000
     42      17.1713      0.00000
     43      17.1713      0.00000
     44      17.4756      0.00000
     45      17.4757      0.00000
     46      18.1590      0.00000
     47      18.1590      0.00000
     48      18.1590      0.00000

[...]

 k-point    65 :       0.3750    0.2500    0.5000
  band No.  band energies     occupation
      1      -3.0884      2.00000
      2      -3.0883      2.00000
      3      -3.0685      2.00000
      4      -2.6832      2.00000
      5      -2.2879      2.00000
      6      -2.2878      2.00000
      7       2.0419      2.00000
      8       2.0421      2.00000
      9       2.6402      2.00000
     10       2.7362      2.00000
     11       2.7362      2.00000
     12       3.7819      2.00000
     13       5.2705      2.00000
     14       5.3532      2.00000
     15       5.3532      2.00000
     16       7.0914      0.00000
     17       7.5774      0.00000
     18       7.5774      0.00000
     19       9.6051      0.00000
     20      10.0906      0.00000
     21      10.6934      0.00000
     22      10.6936      0.00000
     23      11.2313      0.00000
     24      11.2315      0.00000
     25      11.8287      0.00000
     26      11.8287      0.00000
     27      12.7274      0.00000
     28      13.0308      0.00000
     29      13.0376      0.00000
     30      13.0376      0.00000
     31      15.3032      0.00000
     32      15.5485      0.00000
     33      15.9341      0.00000
     34      15.9341      0.00000
     35      16.6523      0.00000
     36      16.6524      0.00000
     37      17.0984      0.00000
     38      17.0984      0.00000
     39      18.0852      0.00000
     40      18.1413      0.00000
     41      18.1414      0.00000
     42      18.3406      0.00000
     43      19.4425      0.00000
     44      19.6332      0.00000
     45      19.7158      0.00000
     46      19.7159      0.00000
     47      19.9058      0.00000
     48      19.9059      0.00000

 soft charge-density along one line, spin component           1
         0         1         2         3         4         5         6         7         8         9
 total charge-density along one line

------------------------ aborting loop because EDIFF is reached ----------------------------------------

  FORCE on cell =-STRESS in cart. coord.  units (eV):
  Direction    XX          YY          ZZ          XY          YZ          ZX
  Alpha Z   -11.24884   -11.24884   -11.24884
  Ewald    -314.36600  -314.36600  -332.90953    -0.00000    -0.00000     0.00000
  Hartree    14.57690    14.57690     9.88053    -0.00000    -0.00000    -0.00000
  E(xc)    -119.94722  -119.94724  -120.04879    -0.00002     0.00000    -0.00000
  Local    -162.88650  -162.88710  -144.43339    -0.00053    -0.00000    -0.00000
  n-local   498.25945   495.94272   498.61043    -2.03173    -0.34188     0.51348
  augment  -102.70126  -102.70062  -103.62553     0.00056    -0.00000     0.00000
  Kinetic   199.41825   199.33881   203.60551    -7.38357     0.33231    -0.21280
  Fock        0.00000     0.00000     0.00000     0.00000     0.00000     0.00000
  Total      -0.09329    -0.09329    -0.16959     0.00000    -0.00000    -0.00000
  in kB      -0.78365    -0.78365    -1.42455     0.00000    -0.00000    -0.00000

 VOLUME and BASIS-vectors are now :
  energy-cutoff  :      223.69
  volume of cell :      190.74
      direct lattice vectors                 reciprocal lattice vectors
     4.380470000  0.000000000  0.000000000     0.228286006  0.131800987  0.000000000
    -2.190235000  3.793598301  0.000000000     0.000000000  0.263601974  0.000000000
     0.000000000  0.000000000 11.478040000    -0.000000000 -0.000000000  0.087122889

  length of vectors
     4.380470000  4.380470000 11.478040000     0.263601974  0.263601974  0.087122889

 FORCES acting on ions
    electron-ion (+dipol)            ewald-force                    non-local-force                 convergence-correction
   0.252E-06 0.225E-06 -.563E+01   -.710E-12 0.381E-12 0.101E+02   0.447E-16 0.355E-17 -.456E+01   0.357E-09 -.206E-09 0.206E-02
   -.252E-06 -.225E-06 0.563E+01   0.710E-12 -.385E-12 -.101E+02   -.142E-16 0.633E-17 0.456E+01   -.357E-09 0.206E-09 -.206E-02
   0.232E-05 -.113E-05 -.562E+01   0.270E-11 -.157E-11 0.101E+02   -.147E-16 0.225E-17 -.456E+01   0.359E-09 -.207E-09 0.207E-02
   0.278E-05 -.170E-05 0.562E+01   0.199E-11 -.112E-11 -.101E+02   0.975E-17 0.217E-16 0.456E+01   -.362E-09 0.209E-09 -.210E-02
   -.278E-05 0.170E-05 -.562E+01   -.200E-11 0.111E-11 0.101E+02   -.432E-16 0.520E-17 -.456E+01   0.362E-09 -.209E-09 0.210E-02
   -.232E-05 0.113E-05 0.562E+01   -.270E-11 0.156E-11 -.101E+02   0.361E-17 0.684E-18 0.456E+01   -.359E-09 0.207E-09 -.207E-02
   -.241E-12 -.222E-13 -.944E-12   -.316E-14 -.623E-14 0.711E-14   -.140E-16 0.398E-16 0.000E+00   0.607E-15 -.231E-15 0.539E-15

 POSITION                                       TOTAL-FORCE (eV/Angst)
      0.00000      0.00000      2.67806        -0.000000      0.000000     -0.035438
      0.00000      0.00000      8.79998        -0.000000      0.000000      0.035438
      2.19023      1.26453      6.50415         0.000000     -0.000000     -0.035870
      2.19023      1.26453      1.14792        -0.000000      0.000000      0.035253
      0.00000      2.52907     10.33012         0.000000      0.000000     -0.035253
      0.00000      2.52907      4.97389        -0.000000      0.000000      0.035870
    total drift:                               -0.000000     -0.000000     -0.000000

  FREE ENERGIE OF THE ION-ELECTRON SYSTEM (eV)
  free  energy   TOTEN  =       -24.84568134 eV

  energy  without entropy=      -24.84489671  energy(sigma->0) =      -24.84528903

 writing wavefunctions