 vasp.6.4.3 19Mar24 (build Jun 26 2024 13:02:28) complex

 executed on             LinuxIFC date 2025.07.29  17:53:20

 INCAR:
   ENCUT = 345.3853
   IBRION = -1
   ISMEAR = 0
   ISPIN = 2
   ISYM = 2
   LCHARG = True
   LWAVE = True
   LORBIT = 11
   MAGMOM = 1*3.0 1*-3.0
   SIGMA = 0.05
   SYSTEM = Cr

 POTCAR:  PAW_PBE Cr_pv 02Aug2007
|           W    W    AA    RRRRR   N    N  II  N    N   GGGG   !!!           |
|           W    W   A  A   R    R  NN   N  II  NN   N  G    G  !!!           |
|           W    W  A    A  R    R  N N  N  II  N N  N  G       !!!           |
|           W WW W  AAAAAA  RRRRR   N  N N  II  N  N N  G  GGG   !            |
|           WW  WW  A    A  R   R   N   NN  II  N   NN  G    G                |
|           W    W  A    A  R    R  N    N  II  N    N   GGGG   !!!           |
|     For optimal performance we recommend to set                             |
|       NCORE = 2 up to number-of-cores-per-socket                            |
|     This setting can greatly improve the performance of VASP for DFT.       |
|     The default, NCORE=1 might be grossly inefficient on modern             |
|     multi-core architectures or massively parallel machines. Do your        |
|     Unfortunately you need to use the default for GW and RPA                |
|     calculations (for HF NCORE is supported but not extensively tested      |
|     yet).                                                                   |

 POTCAR:  PAW_PBE Cr_pv 02Aug2007
   VRHFIN =Cr : p6d5s1

   TITEL  = PAW_PBE Cr_pv 02Aug2007
   POMASS =   51.996; ZVAL   =   12.000    mass and valenz
   ENMAX  =  265.681; ENMIN  =  199.261 eV

PAW_PBE Cr_pv 02Aug2007                 :

 POSCAR: Cr2
  positions in direct lattice

 exchange-correlation table for PE
   RHO(1)=    0.500       N(1)  =     2000
   RHO(2)=  100.500       N(2)  =     4000

 ion  position               nearest neighbor table
   1  0.000  0.000  0.000-   2 2.49   2 2.49   2 2.49   2 2.49   2 2.49   2 2.49   2 2.49   2 2.49

   2  0.500  0.500  0.500-   1 2.49   1 2.49   1 2.49   1 2.49   1 2.49   1 2.49   1 2.49   1 2.49

  LATTYP: Found a simple cubic cell.
 ALAT       =     2.8710000000

  Lattice vectors:

 A1 = (   2.8710000000,   0.0000000000,   0.0000000000)
 A2 = (   0.0000000000,   2.8710000000,   0.0000000000)
 A3 = (   0.0000000000,   0.0000000000,   2.8710000000)

Analysis of symmetry for initial positions (statically):
 Subroutine PRICEL returns following result:

  LATTYP: Found a body centered cubic cell.
 ALAT       =     2.8710000000

[...]

   2 primitive cells build up your supercell.

 Routine SETGRP: Setting up the symmetry group for a
 simple cubic supercell.

 Subroutine GETGRP returns: Found 48 space group operations
 (whereof 48 operations were pure point group operations)
 out of a pool of 48 trial point group operations.

The static configuration has the point symmetry O_h .

Analysis of symmetry for dynamics (positions and initial velocities):
 Subroutine PRICEL returns following result:

[...]

The dynamic configuration has the point symmetry O_h .

Analysis of structural, dynamic, and magnetic symmetry:
 Subroutine PRICEL returns following result:

  LATTYP: Found a body centered cubic cell.
 ALAT       =     2.8710000000

  Lattice vectors:

 A1 = (   1.4355000000,   1.4355000000,  -1.4355000000)
 A2 = (  -1.4355000000,   1.4355000000,   1.4355000000)
 A3 = (   1.4355000000,  -1.4355000000,   1.4355000000)

   2 primitive cells build up your supercell.

 Routine SETGRP: Setting up the symmetry group for a
 simple cubic supercell.

 Subroutine GETGRP returns: Found 48 space group operations
 (whereof 48 operations were pure point group operations)
 out of a pool of 48 trial point group operations.

The overall configuration has the point symmetry O_h .

 Subroutine INISYM returns: Found 48 space group operations
 (whereof 48 operations are pure point group operations),
 and found     2 'primitive' translations

                                     Primitive cell

  volume of cell :      11.8323

  direct lattice vectors                    reciprocal lattice vectors
     1.435500000  1.435500000 -1.435500000     0.348310693  0.348310693  0.000000000
    -1.435500000  1.435500000  1.435500000    -0.000000000  0.348310693  0.348310693
     1.435500000 -1.435500000  1.435500000     0.348310693 -0.000000000  0.348310693

  length of vectors
     2.486358934  2.486358934  2.486358934     0.492585706  0.492585706  0.492585706

  position of ions in fractional coordinates (direct lattice)
     0.000000000  0.000000000  0.000000000

  ion indices of the primitive-cell ions
   primitive index   ion index
                 1           1

 KPOINTS: Automatic kpoint scheme

Automatic generation of k-mesh.
 Grid dimensions read from file:
 generate k-points for:   12   12   12

 Generating k-lattice:

  Cartesian coordinates                     Fractional coordinates (reciprocal lattice)
     0.029025891 -0.000000000  0.000000000     0.083333333  0.000000000  0.000000000
     0.000000000  0.029025891  0.000000000     0.000000000  0.083333333  0.000000000
    -0.000000000 -0.000000000  0.029025891     0.000000000  0.000000000  0.083333333

  Length of vectors
     0.029025891  0.029025891  0.029025891

  Shift w.r.t. Gamma in fractional coordinates (k-lattice)
     0.000000000  0.000000000  0.000000000

 Subroutine IBZKPT returns following result:

 Found     84 irreducible k-points:

 Following reciprocal coordinates:
            Coordinates               Weight
  0.000000  0.000000  0.000000      1.000000
  0.083333  0.000000  0.000000      6.000000
  0.166667  0.000000  0.000000      6.000000
  0.250000  0.000000  0.000000      6.000000
  0.333333  0.000000  0.000000      6.000000
  0.416667  0.000000  0.000000      6.000000
  0.500000  0.000000  0.000000      3.000000
  0.083333  0.083333  0.000000     12.000000
  0.166667  0.083333  0.000000     24.000000
  0.250000  0.083333  0.000000     24.000000
  0.333333  0.083333  0.000000     24.000000
  0.416667  0.083333  0.000000     24.000000
  0.500000  0.083333  0.000000     12.000000
  0.166667  0.166667  0.000000     12.000000
  0.250000  0.166667  0.000000     24.000000
  0.333333  0.166667  0.000000     24.000000
  0.416667  0.166667  0.000000     24.000000
  0.500000  0.166667  0.000000     12.000000
  0.250000  0.250000  0.000000     12.000000
  0.333333  0.250000  0.000000     24.000000
  0.416667  0.250000  0.000000     24.000000
  0.500000  0.250000  0.000000     12.000000
  0.333333  0.333333  0.000000     12.000000
  0.416667  0.333333  0.000000     24.000000
  0.500000  0.333333  0.000000     12.000000
  0.416667  0.416667  0.000000     12.000000
  0.500000  0.416667  0.000000     12.000000
  0.500000  0.500000  0.000000      3.000000
  0.083333  0.083333  0.083333      8.000000
  0.166667  0.083333  0.083333     24.000000
  0.250000  0.083333  0.083333     24.000000
  0.333333  0.083333  0.083333     24.000000
  0.416667  0.083333  0.083333     24.000000
  0.500000  0.083333  0.083333     12.000000
  0.166667  0.166667  0.083333     24.000000
  0.250000  0.166667  0.083333     48.000000
  0.333333  0.166667  0.083333     48.000000
  0.416667  0.166667  0.083333     48.000000
  0.500000  0.166667  0.083333     24.000000
  0.250000  0.250000  0.083333     24.000000
  0.333333  0.250000  0.083333     48.000000
  0.416667  0.250000  0.083333     48.000000
  0.500000  0.250000  0.083333     24.000000
  0.333333  0.333333  0.083333     24.000000
  0.416667  0.333333  0.083333     48.000000
  0.500000  0.333333  0.083333     24.000000
  0.416667  0.416667  0.083333     24.000000
  0.500000  0.416667  0.083333     24.000000
  0.500000  0.500000  0.083333      6.000000
  0.166667  0.166667  0.166667      8.000000
  0.250000  0.166667  0.166667     24.000000
  0.333333  0.166667  0.166667     24.000000
  0.416667  0.166667  0.166667     24.000000
  0.500000  0.166667  0.166667     12.000000
  0.250000  0.250000  0.166667     24.000000
  0.333333  0.250000  0.166667     48.000000
  0.416667  0.250000  0.166667     48.000000
  0.500000  0.250000  0.166667     24.000000
  0.333333  0.333333  0.166667     24.000000
  0.416667  0.333333  0.166667     48.000000
[...]
  0.416667  0.333333  0.250000     48.000000
  0.500000  0.333333  0.250000     24.000000
  0.416667  0.416667  0.250000     24.000000
  0.500000  0.416667  0.250000     24.000000
  0.500000  0.500000  0.250000      6.000000
  0.333333  0.333333  0.333333      8.000000
  0.416667  0.333333  0.333333     24.000000
  0.500000  0.333333  0.333333     12.000000
  0.416667  0.416667  0.333333     24.000000
  0.500000  0.416667  0.333333     24.000000
  0.500000  0.500000  0.333333      6.000000
  0.416667  0.416667  0.416667      8.000000
  0.500000  0.416667  0.416667     12.000000
  0.500000  0.500000  0.416667      6.000000
  0.500000  0.500000  0.500000      1.000000

 Following cartesian coordinates:
            Coordinates               Weight
  0.000000  0.000000  0.000000      1.000000
  0.029026 -0.000000  0.000000      6.000000
  0.058052 -0.000000  0.000000      6.000000
  0.087078 -0.000000  0.000000      6.000000
  0.116104 -0.000000  0.000000      6.000000
  0.145129 -0.000000  0.000000      6.000000
  0.174155 -0.000000  0.000000      3.000000
  0.029026  0.029026  0.000000     12.000000
  0.058052  0.029026  0.000000     24.000000
  0.087078  0.029026  0.000000     24.000000
  0.116104  0.029026  0.000000     24.000000
  0.145129  0.029026  0.000000     24.000000
  0.174155  0.029026  0.000000     12.000000
  0.058052  0.058052  0.000000     12.000000
  0.087078  0.058052  0.000000     24.000000
  0.116104  0.058052  0.000000     24.000000
  0.145129  0.058052  0.000000     24.000000
  0.174155  0.058052  0.000000     12.000000
  0.087078  0.087078  0.000000     12.000000
  0.116104  0.087078  0.000000     24.000000
  0.145129  0.087078  0.000000     24.000000
  0.174155  0.087078  0.000000     12.000000
  0.116104  0.116104  0.000000     12.000000
  0.145129  0.116104  0.000000     24.000000
  0.174155  0.116104  0.000000     12.000000
  0.145129  0.145129  0.000000     12.000000
  0.174155  0.145129  0.000000     12.000000
  0.174155  0.174155  0.000000      3.000000
  0.029026  0.029026  0.029026      8.000000
  0.058052  0.029026  0.029026     24.000000
  0.087078  0.029026  0.029026     24.000000
  0.116104  0.029026  0.029026     24.000000
  0.145129  0.029026  0.029026     24.000000
  0.174155  0.029026  0.029026     12.000000
  0.058052  0.058052  0.029026     24.000000
  0.087078  0.058052  0.029026     48.000000
  0.116104  0.058052  0.029026     48.000000
  0.145129  0.058052  0.029026     48.000000
  0.174155  0.058052  0.029026     24.000000
  0.087078  0.087078  0.029026     24.000000
  0.116104  0.087078  0.029026     48.000000
  0.145129  0.087078  0.029026     48.000000
  0.174155  0.087078  0.029026     24.000000
  0.116104  0.116104  0.029026     24.000000
  0.145129  0.116104  0.029026     48.000000
  0.174155  0.116104  0.029026     24.000000
  0.145129  0.145129  0.029026     24.000000
  0.174155  0.145129  0.029026     24.000000
[...]
 k-point     4 :   0.2500 0.0000 0.0000  plane waves:     345
 k-point     5 :   0.3333 0.0000 0.0000  plane waves:     353
 k-point     6 :   0.4167 0.0000 0.0000  plane waves:     344
 k-point     7 :   0.5000 0.0000 0.0000  plane waves:     336
 k-point     8 :   0.0833 0.0833 0.0000  plane waves:     350
 k-point     9 :   0.1667 0.0833 0.0000  plane waves:     348
 k-point    10 :   0.2500 0.0833 0.0000  plane waves:     347
 k-point    11 :   0.3333 0.0833 0.0000  plane waves:     346
 k-point    12 :   0.4167 0.0833 0.0000  plane waves:     345
 k-point    13 :   0.5000 0.0833 0.0000  plane waves:     348
 k-point    14 :   0.1667 0.1667 0.0000  plane waves:     344
 k-point    15 :   0.2500 0.1667 0.0000  plane waves:     348
 k-point    16 :   0.3333 0.1667 0.0000  plane waves:     345
 k-point    17 :   0.4167 0.1667 0.0000  plane waves:     344
 k-point    18 :   0.5000 0.1667 0.0000  plane waves:     342
 k-point    19 :   0.2500 0.2500 0.0000  plane waves:     338
 k-point    20 :   0.3333 0.2500 0.0000  plane waves:     344
 k-point    21 :   0.4167 0.2500 0.0000  plane waves:     348
 k-point    22 :   0.5000 0.2500 0.0000  plane waves:     350
 k-point    23 :   0.3333 0.3333 0.0000  plane waves:     348
 k-point    24 :   0.4167 0.3333 0.0000  plane waves:     347
 k-point    25 :   0.5000 0.3333 0.0000  plane waves:     348
 k-point    26 :   0.4167 0.4167 0.0000  plane waves:     354
 k-point    27 :   0.5000 0.4167 0.0000  plane waves:     354
 k-point    28 :   0.5000 0.5000 0.0000  plane waves:     356
 k-point    29 :   0.0833 0.0833 0.0833  plane waves:     347
 k-point    30 :   0.1667 0.0833 0.0833  plane waves:     348
 k-point    31 :   0.2500 0.0833 0.0833  plane waves:     347
 k-point    32 :   0.3333 0.0833 0.0833  plane waves:     343
 k-point    33 :   0.4167 0.0833 0.0833  plane waves:     344
 k-point    34 :   0.5000 0.0833 0.0833  plane waves:     342
 k-point    35 :   0.1667 0.1667 0.0833  plane waves:     349
 k-point    36 :   0.2500 0.1667 0.0833  plane waves:     343
 k-point    37 :   0.3333 0.1667 0.0833  plane waves:     346
 k-point    38 :   0.4167 0.1667 0.0833  plane waves:     349
 k-point    39 :   0.5000 0.1667 0.0833  plane waves:     346
 k-point    40 :   0.2500 0.2500 0.0833  plane waves:     341
 k-point    41 :   0.3333 0.2500 0.0833  plane waves:     348
 k-point    42 :   0.4167 0.2500 0.0833  plane waves:     347
 k-point    43 :   0.5000 0.2500 0.0833  plane waves:     346
 k-point    44 :   0.3333 0.3333 0.0833  plane waves:     349
 k-point    45 :   0.4167 0.3333 0.0833  plane waves:     344
 k-point    46 :   0.5000 0.3333 0.0833  plane waves:     348
 k-point    47 :   0.4167 0.4167 0.0833  plane waves:     346
 k-point    48 :   0.5000 0.4167 0.0833  plane waves:     342
 k-point    49 :   0.5000 0.5000 0.0833  plane waves:     348
 k-point    50 :   0.1667 0.1667 0.1667  plane waves:     350
 k-point    51 :   0.2500 0.1667 0.1667  plane waves:     347
 k-point    52 :   0.3333 0.1667 0.1667  plane waves:     350
 k-point    53 :   0.4167 0.1667 0.1667  plane waves:     349
 k-point    54 :   0.5000 0.1667 0.1667  plane waves:     344
 k-point    55 :   0.2500 0.2500 0.1667  plane waves:     345
 k-point    56 :   0.3333 0.2500 0.1667  plane waves:     345
 k-point    57 :   0.4167 0.2500 0.1667  plane waves:     341
 k-point    58 :   0.5000 0.2500 0.1667  plane waves:     346
 k-point    59 :   0.3333 0.3333 0.1667  plane waves:     348
 k-point    60 :   0.4167 0.3333 0.1667  plane waves:     341
[...]
 k-point    70 :   0.4167 0.3333 0.2500  plane waves:     345
 k-point    71 :   0.5000 0.3333 0.2500  plane waves:     344
 k-point    72 :   0.4167 0.4167 0.2500  plane waves:     343
 k-point    73 :   0.5000 0.4167 0.2500  plane waves:     340
 k-point    74 :   0.5000 0.5000 0.2500  plane waves:     336
 k-point    75 :   0.3333 0.3333 0.3333  plane waves:     335
 k-point    76 :   0.4167 0.3333 0.3333  plane waves:     340
 k-point    77 :   0.5000 0.3333 0.3333  plane waves:     338
 k-point    78 :   0.4167 0.4167 0.3333  plane waves:     335
 k-point    79 :   0.5000 0.4167 0.3333  plane waves:     332
 k-point    80 :   0.5000 0.5000 0.3333  plane waves:     332
 k-point    81 :   0.4167 0.4167 0.4167  plane waves:     338
 k-point    82 :   0.5000 0.4167 0.4167  plane waves:     334
 k-point    83 :   0.5000 0.5000 0.4167  plane waves:     340
 k-point    84 :   0.5000 0.5000 0.5000  plane waves:     360

 maximum and minimum number of plane-waves per node :       360      332

 maximum number of plane-waves:       360
 maximum index in each direction:
   IXMAX=    4   IYMAX=    4   IZMAX=    4
   IXMIN=   -4   IYMIN=   -4   IZMIN=   -4

 serial   3D FFT for wavefunctions
 parallel 3D FFT for charge:
    minimum data exchange during FFTs selected (reduces bandwidth)

 Broyden mixing: mesh for mixing (old mesh)
   NGX =  9   NGY =  9   NGZ =  9
  (NGX  = 28   NGY  = 28   NGZ  = 28)
  gives a total of    729 points

 charge density for first step will be calculated from the start-wavefunctions

 Maximum index for augmentation-charges          293 (set IRDMAX)

 initial charge from wavefunction
 First call to EWALD:  gamma=   0.617
 Maximum number of real-space cells 3x 3x 3
 Maximum number of reciprocal cells 3x 3x 3

--------------------------------------- Ionic step        1  -------------------------------------------

--------------------------------------- Iteration      1(   1)  ---------------------------------------

 eigenvalue-minimisations  :  8256
 total energy-change (2. order) :-0.1905377E+02  (-0.2899426E-05)
 number of electron      23.9999611 magnetization       0.0000000
 augmentation part       11.8402767 magnetization       0.0000000

 Broyden mixing:
  rms(total) = 0.18424E-02    rms(broyden)= 0.18422E-02
  rms(prec ) = 0.20459E-02
  weight for this iteration     100.00

 Free energy of the ion-electron system (eV)
  alpha Z        PSCENC =       176.69251159
  Ewald energy   TEWEN  =     -2628.42319331
  -Hartree energ DENC   =      -581.41659338
  -exchange      EXHF   =         0.00000000
  -V(xc)+E(xc)   XCENC  =       108.61769121
  PAW double counting   =      2904.49225364    -3005.23232326
  entropy T*S    EENTRO =        -0.00081109
  eigenvalues    EBANDS =      -289.51050154
  atomic energy  EATOM  =      3295.72719809
  Solvation  Ediel_sol  =         0.00000000
  free energy    TOTEN  =       -19.05376806 eV

  energy without entropy =      -19.05295697  energy(sigma->0) =      -19.05336252

--------------------------------------- Iteration      1(   2)  ---------------------------------------

 eigenvalue-minimisations  :  8064
 total energy-change (2. order) :-0.4271510E-05  (-0.3007546E-05)
 number of electron      23.9999611 magnetization       0.0000000
 augmentation part       11.8402767 magnetization       0.0000000

 Free energy of the ion-electron system (eV)
  alpha Z        PSCENC =       176.69251159
  Ewald energy   TEWEN  =     -2628.42319331
  -Hartree energ DENC   =      -581.43220688
  -exchange      EXHF   =         0.00000000
  -V(xc)+E(xc)   XCENC  =       108.61724304
  PAW double counting   =      2904.50588886    -3005.24769363
  entropy T*S    EENTRO =        -0.00081087
  eigenvalues    EBANDS =      -289.49270923
  atomic energy  EATOM  =      3295.72719809
  Solvation  Ediel_sol  =         0.00000000
  free energy    TOTEN  =       -19.05377233 eV

  energy without entropy =      -19.05296146  energy(sigma->0) =      -19.05336690

 average (electrostatic) potential at core
  the test charge radii are     1.0025
  (the norm of the test charge is              1.0000)
       1 -66.0626       2 -66.0626

 E-fermi :  10.6179     XC(G=0): -13.5180     alpha+bet :-19.2527

 val. band max:       10.5848187887   @ k =   0.5000   0.4167   0.0833
 cond. band min:      10.6365047630   @ k =   0.3333   0.0833   0.0000
 fundamental gap:      0.0516859743
 Fermi energy:        10.6179147290

 spin component 1

 k-point     1 :       0.0000    0.0000    0.0000
  band No.  band energies     occupation
      1     -32.9324      1.00000
      2     -32.9324      1.00000
      3     -32.9324      1.00000
      4     -31.6499      1.00000
      5     -31.6499      1.00000
      6     -31.6499      1.00000
      7       2.8679      1.00000
      8       6.4857      1.00000
      9       6.4857      1.00000
     10       9.7618      1.00000
     11       9.7618      1.00000
     12       9.7618      1.00000
     13      11.8526      0.00000
     14      11.8526      0.00000
     15      13.2247      0.00000
     16      13.2247      0.00000
     17      13.2247      0.00000
     18      17.1283      0.00000
     19      18.6828      0.00000
     20      21.0409      0.00000
     21      21.0409      0.00000
     22      21.0409      0.00000
     23      27.7006      0.00000
     24      27.7006      0.00000
     25      32.7433      0.00000
     26      32.7433      0.00000
     27      32.7433      0.00000
     28      33.7045      0.00000
     29      40.0270      0.00000
     30      40.0270      0.00000
     31      44.4102      0.00000
     32      44.4102      0.00000
     33      44.4102      0.00000
     34      45.2827      0.00000
     35      45.2827      0.00000
     36      45.2827      0.00000
     37      45.7113      0.00000
     38      57.5237      0.00000
     39      57.5237      0.00000
     40      57.5237      0.00000
     41      59.4943      0.00000
     42      59.4943      0.00000
     43      59.4943      0.00000
     44      60.6544      0.00000
     45      69.9717      0.00000
     46      70.8266      0.00000
     47      70.8266      0.00000
     48      70.8266      0.00000

[...]

 k-point    84 :       0.5000    0.5000    0.5000
  band No.  band energies     occupation
      1     -32.9856      1.00000
      2     -32.9856      1.00000
      3     -32.9856      1.00000
      4     -31.8515      1.00000
      5     -31.8515      1.00000
      6     -31.8515      1.00000
      7       8.0811      1.00000
      8       8.0811      1.00000
      9       8.0811      1.00000
     10       8.7790      1.00000
     11       8.7790      1.00000
     12       8.7790      1.00000
     13      11.7197      0.00000
     14      11.7197      0.00000
     15      12.7051      0.00000
     16      12.7051      0.00000
     17      17.1244      0.00000
     18      18.6753      0.00000
     19      20.6430      0.00000
     20      20.6430      0.00000
     21      20.6430      0.00000
     22      20.8532      0.00000
     23      20.8532      0.00000
     24      20.8532      0.00000
     25      22.6154      0.00000
     26      23.1882      0.00000
     27      46.1855      0.00000
     28      46.1855      0.00000
     29      46.1855      0.00000
     30      46.3338      0.00000
     31      46.3338      0.00000
     32      46.3338      0.00000
     33      47.3981      0.00000
     34      47.3981      0.00000
     35      47.3981      0.00000
     36      47.7511      0.00000
     37      47.7511      0.00000
     38      47.7511      0.00000
     39      57.9149      0.00000
     40      57.9149      0.00000
     41      58.4574      0.00000
     42      58.4574      0.00000
     43      63.1068      0.00000
     44      63.1068      0.00000
     45      63.1068      0.00000
     46      63.1879      0.00000
     47      63.1879      0.00000
     48      63.1879      0.00000
 Fermi energy:        10.6179147290

 spin component 2

[...]

 k-point    84 :       0.5000    0.5000    0.5000
  band No.  band energies     occupation
      1     -32.9856      1.00000
      2     -32.9856      1.00000
      3     -32.9856      1.00000
      4     -31.8515      1.00000
      5     -31.8515      1.00000
      6     -31.8515      1.00000
      7       8.0811      1.00000
      8       8.0811      1.00000
      9       8.0811      1.00000
     10       8.7790      1.00000
     11       8.7790      1.00000
     12       8.7790      1.00000
     13      11.7197      0.00000
     14      11.7197      0.00000
     15      12.7051      0.00000
     16      12.7051      0.00000
     17      17.1244      0.00000
     18      18.6753      0.00000
     19      20.6430      0.00000
     20      20.6430      0.00000
     21      20.6430      0.00000
     22      20.8532      0.00000
     23      20.8532      0.00000
     24      20.8532      0.00000
     25      22.6154      0.00000
     26      23.1882      0.00000
     27      46.1855      0.00000
     28      46.1855      0.00000
     29      46.1855      0.00000
     30      46.3338      0.00000
     31      46.3338      0.00000
     32      46.3338      0.00000
     33      47.3981      0.00000
     34      47.3981      0.00000
     35      47.3981      0.00000
     36      47.7511      0.00000
     37      47.7511      0.00000
     38      47.7511      0.00000
     39      57.9149      0.00000
     40      57.9149      0.00000
     41      58.4574      0.00000
     42      58.4574      0.00000
     43      63.1068      0.00000
     44      63.1068      0.00000
     45      63.1068      0.00000
     46      63.1879      0.00000
     47      63.1879      0.00000
     48      63.1879      0.00000

 soft charge-density along one line, spin component           1
         0         1         2         3         4         5         6         7         8         9
 total charge-density along one line

 soft charge-density along one line, spin component           2
         0         1         2         3         4         5         6         7         8         9
 total charge-density along one line

------------------------ aborting loop because EDIFF is reached ----------------------------------------

 total charge

# of ion       s       p       d       tot
    1        0.432   6.389   4.186  11.006
    2        0.432   6.389   4.186  11.006
tot          0.863  12.778   8.372  22.012

 magnetization (x)

[...]

  FORCE on cell =-STRESS in cart. coord.  units (eV):
  Direction    XX          YY          ZZ          XY          YZ          ZX
  Alpha Z   176.69251   176.69251   176.69251
  Ewald    -876.14100  -876.14100  -876.14100    -0.00000     0.00000     0.00000
  Hartree   193.80341   193.80341   193.80341    -0.00000    -0.00000    -0.00000
  E(xc)    -131.36454  -131.36454  -131.36454     0.00000     0.00000    -0.00000
  Local     227.24369   227.24369   227.24369     0.00000     0.00000    -0.00000
  n-local   -71.36771   -62.72785   -56.80615     1.77348    -0.71661     0.28252
  augment   181.54698   181.54698   181.54698     0.00000     0.00000    -0.00000
  Kinetic   285.85083   290.41259   298.47308     5.74533    -1.79766     1.31475
  Fock        0.00000     0.00000     0.00000     0.00000     0.00000     0.00000
  Total      -0.27401    -0.27401    -0.27401    -0.00000    -0.00000     0.00000
  in kB     -18.55162   -18.55162   -18.55162    -0.00000    -0.00000     0.00000

 VOLUME and BASIS-vectors are now :
  energy-cutoff  :      345.39
  volume of cell :       23.66
      direct lattice vectors                 reciprocal lattice vectors
     2.871000000  0.000000000  0.000000000     0.348310693 -0.000000000  0.000000000
     0.000000000  2.871000000  0.000000000     0.000000000  0.348310693  0.000000000
     0.000000000  0.000000000  2.871000000    -0.000000000 -0.000000000  0.348310693

  length of vectors
     2.871000000  2.871000000  2.871000000     0.348310693  0.348310693  0.348310693

 FORCES acting on ions
    electron-ion (+dipol)            ewald-force                    non-local-force                 convergence-correction
   -.514E-13 -.437E-13 -.527E-13   0.623E-15 0.417E-14 -.561E-14   0.504E-26 0.850E-26 -.688E-26   0.114E-13 -.150E-13 -.402E-13
   0.353E-12 -.171E-11 0.715E-13   0.288E-14 -.492E-14 0.583E-14   -.207E-25 -.165E-25 0.856E-26   -.806E-15 -.477E-14 -.290E-13
   0.302E-12 -.175E-11 0.188E-13   0.350E-14 -.749E-15 0.222E-15   -.157E-25 -.802E-26 0.168E-26   0.106E-13 -.197E-13 -.691E-13

 POSITION                                       TOTAL-FORCE (eV/Angst)
      0.00000      0.00000      0.00000        -0.000000      0.000000      0.000000
      1.43550      1.43550      1.43550         0.000000     -0.000000     -0.000000
    total drift:                                0.000000     -0.000000     -0.000000

  FREE ENERGIE OF THE ION-ELECTRON SYSTEM (eV)
  free  energy   TOTEN  =       -19.05377233 eV

  energy  without entropy=      -19.05296146  energy(sigma->0) =      -19.05336690

 writing wavefunctions

 total charge

[...]

 magnetization (x)

# of ion       s       p       d       tot
    1        0.014   0.009   1.114   1.137
    2       -0.014  -0.009  -1.114  -1.137
tot          0.000   0.000   0.000   0.000