 vasp.6.4.3 19Mar24 (build Jun 26 2024 13:02:28) complex

 executed on             LinuxIFC date 2025.08.08  18:19:45

 INCAR:
   ENCUT = 384.07980000000003
   IBRION = -1
   ISMEAR = 0
   ISYM = 2
   LCHARG = True
   LWAVE = True
   SIGMA = 0.05
   SYSTEM = Cu

 POTCAR:  PAW_PBE Cu 22Jun2005
|           W    W    AA    RRRRR   N    N  II  N    N   GGGG   !!!           |
|           W    W   A  A   R    R  NN   N  II  NN   N  G    G  !!!           |
|           W    W  A    A  R    R  N N  N  II  N N  N  G       !!!           |
|           W WW W  AAAAAA  RRRRR   N  N N  II  N  N N  G  GGG   !            |
|           WW  WW  A    A  R   R   N   NN  II  N   NN  G    G                |
|           W    W  A    A  R    R  N    N  II  N    N   GGGG   !!!           |
|     For optimal performance we recommend to set                             |
|       NCORE = 2 up to number-of-cores-per-socket                            |
|     This setting can greatly improve the performance of VASP for DFT.       |
|     The default, NCORE=1 might be grossly inefficient on modern             |
|     multi-core architectures or massively parallel machines. Do your        |
|     Unfortunately you need to use the default for GW and RPA                |
|     calculations (for HF NCORE is supported but not extensively tested      |
|     yet).                                                                   |

 POTCAR:  PAW_PBE Cu 22Jun2005
   VRHFIN =Cu: d10 p1

   TITEL  = PAW_PBE Cu 22Jun2005
   POMASS =   63.546; ZVAL   =   11.000    mass and valenz
   ENMAX  =  295.446; ENMIN  =  221.585 eV

PAW_PBE Cu 22Jun2005                    :

 POSCAR: Cu4
  positions in direct lattice

 exchange-correlation table for PE
   RHO(1)=    0.500       N(1)  =     2000
   RHO(2)=  100.500       N(2)  =     4000

 ion  position               nearest neighbor table
   1  0.000  0.000  0.000-   2 2.57   3 2.57   2 2.57   3 2.57   2 2.57   4 2.57   2 2.57   3 2.57
                             4 2.57   3 2.57   4 2.57   4 2.57
   2  0.000  0.500  0.500-   1 2.57   4 2.57   1 2.57   4 2.57   1 2.57   3 2.57   1 2.57   3 2.57
                             4 2.57   4 2.57   3 2.57   3 2.57
   3  0.500  0.000  0.500-   1 2.57   4 2.57   1 2.57   4 2.57   2 2.57   4 2.57   4 2.57   1 2.57
                             2 2.57   1 2.57   2 2.57   2 2.57
   4  0.500  0.500  0.000-   2 2.57   3 2.57   2 2.57   3 2.57   1 2.57   3 2.57   3 2.57   1 2.57
                             2 2.57   2 2.57   1 2.57   1 2.57

  LATTYP: Found a simple cubic cell.
 ALAT       =     3.6368900000

  Lattice vectors:

 A1 = (   3.6368900000,   0.0000000000,   0.0000000000)
 A2 = (   0.0000000000,   3.6368900000,   0.0000000000)
 A3 = (   0.0000000000,   0.0000000000,   3.6368900000)

Analysis of symmetry for initial positions (statically):
 Subroutine PRICEL returns following result:

  LATTYP: Found a face centered cubic cell.
 ALAT       =     3.6368900000

[...]

   4 primitive cells build up your supercell.

 Routine SETGRP: Setting up the symmetry group for a
 simple cubic supercell.

 Subroutine GETGRP returns: Found 48 space group operations
 (whereof 48 operations were pure point group operations)
 out of a pool of 48 trial point group operations.

The static configuration has the point symmetry O_h .

Analysis of symmetry for dynamics (positions and initial velocities):
 Subroutine PRICEL returns following result:

  LATTYP: Found a face centered cubic cell.
 ALAT       =     3.6368900000

  Lattice vectors:

 A1 = (   1.8184450000,  -1.8184450000,   0.0000000000)
 A2 = (   1.8184450000,   0.0000000000,   1.8184450000)
 A3 = (  -0.0000000000,  -1.8184450000,   1.8184450000)

   4 primitive cells build up your supercell.

 Routine SETGRP: Setting up the symmetry group for a
 simple cubic supercell.

 Subroutine GETGRP returns: Found 48 space group operations
 (whereof 48 operations were pure point group operations)
 out of a pool of 48 trial point group operations.

The dynamic configuration has the point symmetry O_h .

 Subroutine INISYM returns: Found 48 space group operations
 (whereof 48 operations are pure point group operations),
 and found     4 'primitive' translations

                                     Primitive cell

  volume of cell :      12.0263

  direct lattice vectors                    reciprocal lattice vectors
     1.818445000 -1.818445000  0.000000000     0.274960200 -0.274960200 -0.274960200
     1.818445000  0.000000000  1.818445000     0.274960200  0.274960200  0.274960200
    -0.000000000 -1.818445000  1.818445000    -0.274960200 -0.274960200  0.274960200

  length of vectors
     2.571669581  2.571669581  2.571669581     0.476245036  0.476245036  0.476245036

  position of ions in fractional coordinates (direct lattice)
     0.000000000  0.000000000  0.000000000

  ion indices of the primitive-cell ions
   primitive index   ion index
                 1           1

 KPOINTS: Automatic kpoint scheme

Automatic generation of k-mesh.
 Grid dimensions read from file:
 generate k-points for:   12   12   12

 Generating k-lattice:

  Cartesian coordinates                     Fractional coordinates (reciprocal lattice)
     0.022913350 -0.000000000  0.000000000     0.083333333 -0.000000000  0.000000000
     0.000000000  0.022913350  0.000000000     0.000000000  0.083333333  0.000000000
    -0.000000000 -0.000000000  0.022913350     0.000000000 -0.000000000  0.083333333

  Length of vectors
     0.022913350  0.022913350  0.022913350

  Shift w.r.t. Gamma in fractional coordinates (k-lattice)
     0.000000000  0.000000000  0.000000000

 Subroutine IBZKPT returns following result:

 Found     84 irreducible k-points:

 Following reciprocal coordinates:
            Coordinates               Weight
  0.000000  0.000000  0.000000      1.000000
  0.083333  0.000000  0.000000      6.000000
  0.166667  0.000000  0.000000      6.000000
  0.250000  0.000000  0.000000      6.000000
  0.333333  0.000000  0.000000      6.000000
  0.416667  0.000000  0.000000      6.000000
  0.500000  0.000000  0.000000      3.000000
  0.083333  0.083333  0.000000     12.000000
  0.166667  0.083333  0.000000     24.000000
  0.250000  0.083333  0.000000     24.000000
  0.333333  0.083333  0.000000     24.000000
  0.416667  0.083333  0.000000     24.000000
  0.500000  0.083333  0.000000     12.000000
  0.166667  0.166667  0.000000     12.000000
  0.250000  0.166667  0.000000     24.000000
  0.333333  0.166667  0.000000     24.000000
  0.416667  0.166667  0.000000     24.000000
  0.500000  0.166667  0.000000     12.000000
  0.250000  0.250000  0.000000     12.000000
  0.333333  0.250000  0.000000     24.000000
  0.416667  0.250000  0.000000     24.000000
  0.500000  0.250000  0.000000     12.000000
  0.333333  0.333333  0.000000     12.000000
  0.416667  0.333333  0.000000     24.000000
  0.500000  0.333333  0.000000     12.000000
  0.416667  0.416667  0.000000     12.000000
  0.500000  0.416667  0.000000     12.000000
  0.500000  0.500000  0.000000      3.000000
  0.083333  0.083333  0.083333      8.000000
  0.166667  0.083333  0.083333     24.000000
  0.250000  0.083333  0.083333     24.000000
  0.333333  0.083333  0.083333     24.000000
  0.416667  0.083333  0.083333     24.000000
  0.500000  0.083333  0.083333     12.000000
  0.166667  0.166667  0.083333     24.000000
  0.250000  0.166667  0.083333     48.000000
  0.333333  0.166667  0.083333     48.000000
  0.416667  0.166667  0.083333     48.000000
  0.500000  0.166667  0.083333     24.000000
  0.250000  0.250000  0.083333     24.000000
  0.333333  0.250000  0.083333     48.000000
  0.416667  0.250000  0.083333     48.000000
  0.500000  0.250000  0.083333     24.000000
  0.333333  0.333333  0.083333     24.000000
  0.416667  0.333333  0.083333     48.000000
  0.500000  0.333333  0.083333     24.000000
  0.416667  0.416667  0.083333     24.000000
  0.500000  0.416667  0.083333     24.000000
  0.500000  0.500000  0.083333      6.000000
  0.166667  0.166667  0.166667      8.000000
  0.250000  0.166667  0.166667     24.000000
  0.333333  0.166667  0.166667     24.000000
  0.416667  0.166667  0.166667     24.000000
  0.500000  0.166667  0.166667     12.000000
  0.250000  0.250000  0.166667     24.000000
  0.333333  0.250000  0.166667     48.000000
  0.416667  0.250000  0.166667     48.000000
  0.500000  0.250000  0.166667     24.000000
  0.333333  0.333333  0.166667     24.000000
  0.416667  0.333333  0.166667     48.000000
[...]
  0.416667  0.333333  0.250000     48.000000
  0.500000  0.333333  0.250000     24.000000
  0.416667  0.416667  0.250000     24.000000
  0.500000  0.416667  0.250000     24.000000
  0.500000  0.500000  0.250000      6.000000
  0.333333  0.333333  0.333333      8.000000
  0.416667  0.333333  0.333333     24.000000
  0.500000  0.333333  0.333333     12.000000
  0.416667  0.416667  0.333333     24.000000
  0.500000  0.416667  0.333333     24.000000
  0.500000  0.500000  0.333333      6.000000
  0.416667  0.416667  0.416667      8.000000
  0.500000  0.416667  0.416667     12.000000
  0.500000  0.500000  0.416667      6.000000
  0.500000  0.500000  0.500000      1.000000

 Following cartesian coordinates:
            Coordinates               Weight
  0.000000  0.000000  0.000000      1.000000
  0.022913 -0.000000  0.000000      6.000000
  0.045827 -0.000000  0.000000      6.000000
  0.068740 -0.000000  0.000000      6.000000
  0.091653 -0.000000  0.000000      6.000000
  0.114567 -0.000000  0.000000      6.000000
  0.137480 -0.000000  0.000000      3.000000
  0.022913  0.022913  0.000000     12.000000
  0.045827  0.022913  0.000000     24.000000
  0.068740  0.022913  0.000000     24.000000
  0.091653  0.022913  0.000000     24.000000
  0.114567  0.022913  0.000000     24.000000
  0.137480  0.022913  0.000000     12.000000
  0.045827  0.045827  0.000000     12.000000
  0.068740  0.045827  0.000000     24.000000
  0.091653  0.045827  0.000000     24.000000
  0.114567  0.045827  0.000000     24.000000
  0.137480  0.045827  0.000000     12.000000
  0.068740  0.068740  0.000000     12.000000
  0.091653  0.068740  0.000000     24.000000
  0.114567  0.068740  0.000000     24.000000
  0.137480  0.068740  0.000000     12.000000
  0.091653  0.091653  0.000000     12.000000
  0.114567  0.091653  0.000000     24.000000
  0.137480  0.091653  0.000000     12.000000
  0.114567  0.114567  0.000000     12.000000
  0.137480  0.114567  0.000000     12.000000
  0.137480  0.137480  0.000000      3.000000
  0.022913  0.022913  0.022913      8.000000
  0.045827  0.022913  0.022913     24.000000
  0.068740  0.022913  0.022913     24.000000
  0.091653  0.022913  0.022913     24.000000
  0.114567  0.022913  0.022913     24.000000
  0.137480  0.022913  0.022913     12.000000
  0.045827  0.045827  0.022913     24.000000
  0.068740  0.045827  0.022913     48.000000
  0.091653  0.045827  0.022913     48.000000
  0.114567  0.045827  0.022913     48.000000
  0.137480  0.045827  0.022913     24.000000
  0.068740  0.068740  0.022913     24.000000
  0.091653  0.068740  0.022913     48.000000
  0.114567  0.068740  0.022913     48.000000
  0.137480  0.068740  0.022913     24.000000
[...]
   0.41666667  0.41666667  0.08333333       0.014
   0.50000000  0.41666667  0.08333333       0.014
   0.50000000  0.50000000  0.08333333       0.003
   0.16666667  0.16666667  0.16666667       0.005
   0.25000000  0.16666667  0.16666667       0.014
   0.33333333  0.16666667  0.16666667       0.014
   0.41666667  0.16666667  0.16666667       0.014
   0.50000000  0.16666667  0.16666667       0.007
   0.25000000  0.25000000  0.16666667       0.014
   0.33333333  0.25000000  0.16666667       0.028
   0.41666667  0.25000000  0.16666667       0.028
   0.50000000  0.25000000  0.16666667       0.014
   0.33333333  0.33333333  0.16666667       0.014
   0.41666667  0.33333333  0.16666667       0.028
[...]
   0.41666667  0.33333333  0.25000000       0.028
   0.50000000  0.33333333  0.25000000       0.014
   0.41666667  0.41666667  0.25000000       0.014
   0.50000000  0.41666667  0.25000000       0.014
   0.50000000  0.50000000  0.25000000       0.003
   0.33333333  0.33333333  0.33333333       0.005
   0.41666667  0.33333333  0.33333333       0.014
   0.50000000  0.33333333  0.33333333       0.007
   0.41666667  0.41666667  0.33333333       0.014
   0.50000000  0.41666667  0.33333333       0.014
   0.50000000  0.50000000  0.33333333       0.003
   0.41666667  0.41666667  0.41666667       0.005
   0.50000000  0.41666667  0.41666667       0.007
   0.50000000  0.50000000  0.41666667       0.003
   0.50000000  0.50000000  0.50000000       0.001

 position of ions in fractional coordinates (direct lattice)
   0.00000000  0.00000000  0.00000000
   0.00000000  0.50000000  0.50000000
   0.50000000  0.00000000  0.50000000
   0.50000000  0.50000000  0.00000000

 position of ions in cartesian coordinates  (Angst):
   0.00000000  0.00000000  0.00000000
   0.00000000  1.81844500  1.81844500
   1.81844500  0.00000000  1.81844500
   1.81844500  1.81844500  0.00000000

 k-point     1 :   0.0000 0.0000 0.0000  plane waves:     799
 k-point     2 :   0.0833 0.0000 0.0000  plane waves:     815
 k-point     3 :   0.1667 0.0000 0.0000  plane waves:     815
 k-point     4 :   0.2500 0.0000 0.0000  plane waves:     812
 k-point     5 :   0.3333 0.0000 0.0000  plane waves:     820
 k-point     6 :   0.4167 0.0000 0.0000  plane waves:     816
 k-point     7 :   0.5000 0.0000 0.0000  plane waves:     820
 k-point     8 :   0.0833 0.0833 0.0000  plane waves:     811
 k-point     9 :   0.1667 0.0833 0.0000  plane waves:     813
 k-point    10 :   0.2500 0.0833 0.0000  plane waves:     823
 k-point    11 :   0.3333 0.0833 0.0000  plane waves:     822
 k-point    12 :   0.4167 0.0833 0.0000  plane waves:     828
 k-point    13 :   0.5000 0.0833 0.0000  plane waves:     832
 k-point    14 :   0.1667 0.1667 0.0000  plane waves:     818
 k-point    15 :   0.2500 0.1667 0.0000  plane waves:     823
 k-point    16 :   0.3333 0.1667 0.0000  plane waves:     822
 k-point    17 :   0.4167 0.1667 0.0000  plane waves:     831
 k-point    18 :   0.5000 0.1667 0.0000  plane waves:     826
 k-point    19 :   0.2500 0.2500 0.0000  plane waves:     822
 k-point    20 :   0.3333 0.2500 0.0000  plane waves:     827
 k-point    21 :   0.4167 0.2500 0.0000  plane waves:     825
 k-point    22 :   0.5000 0.2500 0.0000  plane waves:     814
 k-point    23 :   0.3333 0.3333 0.0000  plane waves:     824
 k-point    24 :   0.4167 0.3333 0.0000  plane waves:     821
 k-point    25 :   0.5000 0.3333 0.0000  plane waves:     820
 k-point    26 :   0.4167 0.4167 0.0000  plane waves:     832
 k-point    27 :   0.5000 0.4167 0.0000  plane waves:     824
 k-point    28 :   0.5000 0.5000 0.0000  plane waves:     840
 k-point    29 :   0.0833 0.0833 0.0833  plane waves:     814
 k-point    30 :   0.1667 0.0833 0.0833  plane waves:     815
 k-point    31 :   0.2500 0.0833 0.0833  plane waves:     823
 k-point    32 :   0.3333 0.0833 0.0833  plane waves:     817
 k-point    33 :   0.4167 0.0833 0.0833  plane waves:     824
 k-point    34 :   0.5000 0.0833 0.0833  plane waves:     822
 k-point    35 :   0.1667 0.1667 0.0833  plane waves:     817
 k-point    36 :   0.2500 0.1667 0.0833  plane waves:     820
 k-point    37 :   0.3333 0.1667 0.0833  plane waves:     822
 k-point    38 :   0.4167 0.1667 0.0833  plane waves:     824
 k-point    39 :   0.5000 0.1667 0.0833  plane waves:     820
 k-point    40 :   0.2500 0.2500 0.0833  plane waves:     818
 k-point    41 :   0.3333 0.2500 0.0833  plane waves:     827
 k-point    42 :   0.4167 0.2500 0.0833  plane waves:     826
 k-point    43 :   0.5000 0.2500 0.0833  plane waves:     818
 k-point    44 :   0.3333 0.3333 0.0833  plane waves:     826
 k-point    45 :   0.4167 0.3333 0.0833  plane waves:     821
 k-point    46 :   0.5000 0.3333 0.0833  plane waves:     820
 k-point    47 :   0.4167 0.4167 0.0833  plane waves:     822
 k-point    48 :   0.5000 0.4167 0.0833  plane waves:     822
 k-point    49 :   0.5000 0.5000 0.0833  plane waves:     828
 k-point    50 :   0.1667 0.1667 0.1667  plane waves:     820
 k-point    51 :   0.2500 0.1667 0.1667  plane waves:     819
 k-point    52 :   0.3333 0.1667 0.1667  plane waves:     819
 k-point    53 :   0.4167 0.1667 0.1667  plane waves:     819
 k-point    54 :   0.5000 0.1667 0.1667  plane waves:     828
 k-point    55 :   0.2500 0.2500 0.1667  plane waves:     821
 k-point    56 :   0.3333 0.2500 0.1667  plane waves:     824
 k-point    57 :   0.4167 0.2500 0.1667  plane waves:     818
 k-point    58 :   0.5000 0.2500 0.1667  plane waves:     818
 k-point    59 :   0.3333 0.3333 0.1667  plane waves:     822
 k-point    60 :   0.4167 0.3333 0.1667  plane waves:     817
[...]
 k-point    70 :   0.4167 0.3333 0.2500  plane waves:     821
 k-point    71 :   0.5000 0.3333 0.2500  plane waves:     828
 k-point    72 :   0.4167 0.4167 0.2500  plane waves:     828
 k-point    73 :   0.5000 0.4167 0.2500  plane waves:     828
 k-point    74 :   0.5000 0.5000 0.2500  plane waves:     824
 k-point    75 :   0.3333 0.3333 0.3333  plane waves:     814
 k-point    76 :   0.4167 0.3333 0.3333  plane waves:     822
 k-point    77 :   0.5000 0.3333 0.3333  plane waves:     818
 k-point    78 :   0.4167 0.4167 0.3333  plane waves:     823
 k-point    79 :   0.5000 0.4167 0.3333  plane waves:     828
 k-point    80 :   0.5000 0.5000 0.3333  plane waves:     832
 k-point    81 :   0.4167 0.4167 0.4167  plane waves:     828
 k-point    82 :   0.5000 0.4167 0.4167  plane waves:     840
 k-point    83 :   0.5000 0.5000 0.4167  plane waves:     840
 k-point    84 :   0.5000 0.5000 0.5000  plane waves:     840

 maximum and minimum number of plane-waves per node :       840      799

 maximum number of plane-waves:       840
 maximum index in each direction:
   IXMAX=    5   IYMAX=    5   IZMAX=    5
   IXMIN=   -6   IYMIN=   -6   IZMIN=   -6

 serial   3D FFT for wavefunctions
 parallel 3D FFT for charge:
    minimum data exchange during FFTs selected (reduces bandwidth)

 Broyden mixing: mesh for mixing (old mesh)
   NGX = 11   NGY = 11   NGZ = 11
  (NGX  = 36   NGY  = 36   NGZ  = 36)
  gives a total of   1331 points

 charge density for first step will be calculated from the start-wavefunctions

 Maximum index for augmentation-charges          277 (set IRDMAX)

 initial charge from wavefunction
 First call to EWALD:  gamma=   0.487
 Maximum number of real-space cells 3x 3x 3
 Maximum number of reciprocal cells 3x 3x 3

--------------------------------------- Ionic step        1  -------------------------------------------

--------------------------------------- Iteration      1(   1)  ---------------------------------------

 eigenvalue-minimisations  :  4512
 total energy-change (2. order) :-0.1493016E+02  (-0.8594105E-05)
 number of electron      44.0001105 magnetization
 augmentation part       28.0499901 magnetization

 Broyden mixing:
  rms(total) = 0.18490E-02    rms(broyden)= 0.18487E-02
  rms(prec ) = 0.42085E-02
  weight for this iteration     100.00

 Free energy of the ion-electron system (eV)
  alpha Z        PSCENC =       243.24376042
  Ewald energy   TEWEN  =     -4393.06423324
  -Hartree energ DENC   =     -1369.50389025
  -exchange      EXHF   =         0.00000000
  -V(xc)+E(xc)   XCENC  =       178.57275259
  PAW double counting   =      5241.75956691    -5672.83234513
  entropy T*S    EENTRO =        -0.00088137
  eigenvalues    EBANDS =       193.08389629
  atomic energy  EATOM  =      5563.81121641
  Solvation  Ediel_sol  =         0.00000000
  free energy    TOTEN  =       -14.93015739 eV

  energy without entropy =      -14.92927601  energy(sigma->0) =      -14.92971670

--------------------------------------- Iteration      1(   2)  ---------------------------------------

 eigenvalue-minimisations  :  4224
 total energy-change (2. order) : 0.3682114E-05  (-0.1270608E-04)
 number of electron      44.0001105 magnetization
 augmentation part       28.0499901 magnetization

 Free energy of the ion-electron system (eV)
  alpha Z        PSCENC =       243.24376042
  Ewald energy   TEWEN  =     -4393.06423324
  -Hartree energ DENC   =     -1369.37450728
  -exchange      EXHF   =         0.00000000
  -V(xc)+E(xc)   XCENC  =       178.56619958
  PAW double counting   =      5241.65024908    -5672.67629453
  entropy T*S    EENTRO =        -0.00087770
  eigenvalues    EBANDS =       192.91433355
  atomic energy  EATOM  =      5563.81121641
  Solvation  Ediel_sol  =         0.00000000
  free energy    TOTEN  =       -14.93015371 eV

  energy without entropy =      -14.92927601  energy(sigma->0) =      -14.92971486

 average (electrostatic) potential at core
  the test charge radii are     0.9430
  (the norm of the test charge is              1.0000)
       1 -63.8758       2 -63.8758       3 -63.8758       4 -63.8758

 E-fermi :   7.3942     XC(G=0): -12.6214     alpha+bet :-13.1831

 val. band max:        7.3099109903   @ k =   0.3333   0.3333   0.0833
 cond. band min:       7.4151646597   @ k =   0.3333   0.3333   0.1667
 fundamental gap:      0.1052536694
 Fermi energy:         7.3942051779

 k-point     1 :       0.0000    0.0000    0.0000
  band No.  band energies     occupation
      1      -1.8531      2.00000
      2       2.5943      2.00000
      3       2.5943      2.00000
      4       2.5943      2.00000
      5       3.0393      2.00000
      6       3.0393      2.00000
      7       3.0393      2.00000
      8       4.3947      2.00000
      9       4.3947      2.00000
     10       4.3947      2.00000
     11       5.1989      2.00000
     12       5.1989      2.00000
     13       5.7330      2.00000
     14       5.7330      2.00000
     15       5.7330      2.00000
     16       5.8841      2.00000
     17       5.8841      2.00000
     18       5.8841      2.00000
     19       5.8841      2.00000
     20       5.8841      2.00000
     21       5.8841      2.00000
     22       8.8731      0.00000
     23       8.8731      0.00000
     24       8.8731      0.00000
     25      14.3515      0.00000
     26      14.3515      0.00000
     27      14.3515      0.00000
     28      20.3021      0.00000
     29      20.3021      0.00000
     30      20.3021      0.00000
     31      20.3021      0.00000
     32      20.3021      0.00000
     33      20.3021      0.00000
     34      24.7538      0.00000
     35      24.7538      0.00000
     36      24.7538      0.00000
     37      27.3229      0.00000
     38      27.3229      0.00000
     39      27.3229      0.00000
     40      29.8136      0.00000
     41      32.3131      0.00000
     42      32.3131      0.00000
     43      32.3131      0.00000
     44      34.7926      0.00000
     45      34.7926      0.00000
     46      34.7926      0.00000
     47      38.5575      0.00000
     48      43.1883      0.00000

[...]

 k-point    84 :       0.5000    0.5000    0.5000
  band No.  band energies     occupation
      1       2.3889      2.00000
      2       2.3889      2.00000
      3       2.3889      2.00000
      4       2.3889      2.00000
      5       4.3646      2.00000
      6       4.3646      2.00000
      7       4.3646      2.00000
      8       4.3646      2.00000
      9       4.3646      2.00000
     10       4.3646      2.00000
     11       4.3646      2.00000
     12       4.3646      2.00000
     13       5.7472      2.00000
     14       5.7472      2.00000
     15       5.7472      2.00000
     16       5.7472      2.00000
     17       5.7472      2.00000
     18       5.7472      2.00000
     19       5.7472      2.00000
     20       5.7472      2.00000
     21       6.4124      2.00000
     22       6.4124      2.00000
     23       6.4124      2.00000
     24       6.4124      2.00000
     25      11.0277      0.00000
     26      11.0277      0.00000
     27      11.0277      0.00000
     28      11.0277      0.00000
     29      28.3146      0.00000
     30      28.3146      0.00000
     31      28.3146      0.00000
     32      28.3146      0.00000
     33      29.1480      0.00000
     34      29.1480      0.00000
     35      29.1480      0.00000
     36      29.1480      0.00000
     37      29.1480      0.00000
     38      29.1480      0.00000
     39      29.1480      0.00000
     40      29.1480      0.00000
     41      32.1813      0.00000
     42      32.1813      0.00000
     43      32.1813      0.00000
     44      32.1813      0.00000
     45      32.1813      0.00000
     46      32.1813      0.00000
     47      32.1813      0.00000
     48      32.1813      0.00000

 soft charge-density along one line, spin component           1
         0         1         2         3         4         5         6         7         8         9
 total charge-density along one line

------------------------ aborting loop because EDIFF is reached ----------------------------------------

  FORCE on cell =-STRESS in cart. coord.  units (eV):
  Direction    XX          YY          ZZ          XY          YZ          ZX
  Alpha Z   243.24376   243.24376   243.24376
  Ewald   -1464.35539 -1464.35539 -1464.35539    -0.00000     0.00000     0.00000
  Hartree   456.52772   456.52772   456.52772    -0.00000    -0.00000    -0.00000
  E(xc)    -257.23697  -257.23697  -257.23697     0.00000     0.00000    -0.00000
  Local     368.96130   368.96130   368.96130     0.00000     0.00000    -0.00000
  n-local   -79.06431   -87.76658   -89.09837     0.68601     2.72579     0.98018
  augment   379.30051   379.30051   379.30051    -0.00000     0.00000    -0.00000
  Kinetic   366.38754   358.01373   352.38102    -2.88465    -0.01798    -1.20671
  Fock        0.00000     0.00000     0.00000     0.00000     0.00000     0.00000
  Total       0.05861     0.05861     0.05861     0.00000     0.00000    -0.00000
  in kB       1.95202     1.95202     1.95202     0.00000     0.00000    -0.00000

 VOLUME and BASIS-vectors are now :
  energy-cutoff  :      384.08
  volume of cell :       48.11
      direct lattice vectors                 reciprocal lattice vectors
     3.636890000  0.000000000  0.000000000     0.274960200 -0.000000000  0.000000000
     0.000000000  3.636890000  0.000000000     0.000000000  0.274960200  0.000000000
     0.000000000  0.000000000  3.636890000    -0.000000000 -0.000000000  0.274960200

  length of vectors
     3.636890000  3.636890000  3.636890000     0.274960200  0.274960200  0.274960200

 FORCES acting on ions
    electron-ion (+dipol)            ewald-force                    non-local-force                 convergence-correction
   -.461E-13 -.348E-13 -.788E-13   -.138E-13 -.565E-14 0.369E-14   0.442E-24 -.639E-24 0.345E-24   0.249E-13 0.280E-14 -.326E-13
   -.469E-13 0.703E-12 0.655E-12   -.130E-13 0.394E-14 0.628E-14   0.239E-23 0.134E-23 0.350E-23   0.327E-14 -.144E-13 0.316E-13
   0.672E-12 -.557E-13 -.101E-11   0.128E-13 -.462E-14 0.646E-14   0.425E-24 -.164E-24 0.140E-23   -.691E-13 0.422E-13 0.469E-13
   0.672E-12 0.690E-12 0.845E-12   0.136E-13 0.498E-14 -.132E-13   -.902E-24 -.951E-25 -.309E-24   -.653E-13 0.138E-13 -.272E-13
   0.125E-11 0.130E-11 0.406E-12   -.323E-15 -.136E-14 0.323E-14   0.235E-23 0.444E-24 0.494E-23   -.106E-12 0.445E-13 0.187E-13

 POSITION                                       TOTAL-FORCE (eV/Angst)
      0.00000      0.00000      0.00000         0.000000      0.000000     -0.000000
      0.00000      1.81845      1.81845        -0.000000      0.000000     -0.000000
      1.81845      0.00000      1.81845         0.000000     -0.000000     -0.000000
      1.81845      1.81845      0.00000        -0.000000      0.000000      0.000000
    total drift:                                0.000000      0.000000      0.000000

  FREE ENERGIE OF THE ION-ELECTRON SYSTEM (eV)
  free  energy   TOTEN  =       -14.93015371 eV

  energy  without entropy=      -14.92927601  energy(sigma->0) =      -14.92971486

 writing wavefunctions