 vasp.6.4.3 19Mar24 (build Jun 26 2024 13:02:28) complex

 executed on             LinuxIFC date 2025.08.08  19:06:32

 INCAR:
   ENCUT = 286.4134
   IBRION = -1
   ISMEAR = 0
   ISYM = 2
   LCHARG = True
   LWAVE = True
   SIGMA = 0.05
   SYSTEM = Cs

 POTCAR:  PAW_PBE Cs_sv 08Apr2002
|           W    W    AA    RRRRR   N    N  II  N    N   GGGG   !!!           |
|           W    W   A  A   R    R  NN   N  II  NN   N  G    G  !!!           |
|           W    W  A    A  R    R  N N  N  II  N N  N  G       !!!           |
|           W WW W  AAAAAA  RRRRR   N  N N  II  N  N N  G  GGG   !            |
|           WW  WW  A    A  R   R   N   NN  II  N   NN  G    G                |
|           W    W  A    A  R    R  N    N  II  N    N   GGGG   !!!           |
|     For optimal performance we recommend to set                             |
|       NCORE = 2 up to number-of-cores-per-socket                            |
|     This setting can greatly improve the performance of VASP for DFT.       |
|     The default, NCORE=1 might be grossly inefficient on modern             |
|     multi-core architectures or massively parallel machines. Do your        |
|     Unfortunately you need to use the default for GW and RPA                |
|     calculations (for HF NCORE is supported but not extensively tested      |
|     yet).                                                                   |

 POTCAR:  PAW_PBE Cs_sv 08Apr2002
   VRHFIN =Cs: 5s5p6s

   TITEL  = PAW_PBE Cs_sv 08Apr2002
   POMASS =  132.900; ZVAL   =    9.000    mass and valenz
   ENMAX  =  220.318; ENMIN  =  165.238 eV

PAW_PBE Cs_sv 08Apr2002                 :

 POSCAR: Cs2
  positions in direct lattice

 exchange-correlation table for PE
   RHO(1)=    0.500       N(1)  =     2000
   RHO(2)=  100.500       N(2)  =     4000

 ion  position               nearest neighbor table
   1  0.000  0.000  0.000-
   2  0.500  0.500  0.500-

  LATTYP: Found a simple cubic cell.
 ALAT       =     6.1615300000

  Lattice vectors:

 A1 = (   6.1615300000,   0.0000000000,   0.0000000000)
 A2 = (   0.0000000000,   6.1615300000,   0.0000000000)
 A3 = (   0.0000000000,   0.0000000000,   6.1615300000)

Analysis of symmetry for initial positions (statically):
 Subroutine PRICEL returns following result:

  LATTYP: Found a body centered cubic cell.
 ALAT       =     6.1615300000

[...]

   2 primitive cells build up your supercell.

 Routine SETGRP: Setting up the symmetry group for a
 simple cubic supercell.

 Subroutine GETGRP returns: Found 48 space group operations
 (whereof 48 operations were pure point group operations)
 out of a pool of 48 trial point group operations.

The static configuration has the point symmetry O_h .

Analysis of symmetry for dynamics (positions and initial velocities):
 Subroutine PRICEL returns following result:

  LATTYP: Found a body centered cubic cell.
 ALAT       =     6.1615300000

  Lattice vectors:

 A1 = (   3.0807650000,   3.0807650000,  -3.0807650000)
 A2 = (  -3.0807650000,   3.0807650000,   3.0807650000)
 A3 = (   3.0807650000,  -3.0807650000,   3.0807650000)

   2 primitive cells build up your supercell.

 Routine SETGRP: Setting up the symmetry group for a
 simple cubic supercell.

 Subroutine GETGRP returns: Found 48 space group operations
 (whereof 48 operations were pure point group operations)
 out of a pool of 48 trial point group operations.

The dynamic configuration has the point symmetry O_h .

 Subroutine INISYM returns: Found 48 space group operations
 (whereof 48 operations are pure point group operations),
 and found     2 'primitive' translations

                                     Primitive cell

  volume of cell :     116.9596

  direct lattice vectors                    reciprocal lattice vectors
     3.080765000  3.080765000 -3.080765000     0.162297351  0.162297351 -0.000000000
    -3.080765000  3.080765000  3.080765000    -0.000000000  0.162297351  0.162297351
     3.080765000 -3.080765000  3.080765000     0.162297351 -0.000000000  0.162297351

  length of vectors
     5.336041506  5.336041506  5.336041506     0.229523116  0.229523116  0.229523116

  position of ions in fractional coordinates (direct lattice)
     0.000000000  0.000000000  0.000000000

  ion indices of the primitive-cell ions
   primitive index   ion index
                 1           1

 KPOINTS: Automatic kpoint scheme

Automatic generation of k-mesh.
 Grid dimensions read from file:
 generate k-points for:   12   12   12

 Generating k-lattice:

  Cartesian coordinates                     Fractional coordinates (reciprocal lattice)
     0.013524779 -0.000000000  0.000000000     0.083333333 -0.000000000  0.000000000
     0.000000000  0.013524779  0.000000000     0.000000000  0.083333333  0.000000000
    -0.000000000 -0.000000000  0.013524779    -0.000000000 -0.000000000  0.083333333

  Length of vectors
     0.013524779  0.013524779  0.013524779

  Shift w.r.t. Gamma in fractional coordinates (k-lattice)
     0.000000000  0.000000000  0.000000000

 Subroutine IBZKPT returns following result:

 Found     84 irreducible k-points:

 Following reciprocal coordinates:
            Coordinates               Weight
  0.000000  0.000000  0.000000      1.000000
  0.083333 -0.000000  0.000000      6.000000
  0.166667 -0.000000  0.000000      6.000000
  0.250000 -0.000000  0.000000      6.000000
  0.333333 -0.000000  0.000000      6.000000
  0.416667 -0.000000  0.000000      6.000000
  0.500000 -0.000000  0.000000      3.000000
  0.083333  0.083333  0.000000     12.000000
  0.166667  0.083333  0.000000     24.000000
  0.250000  0.083333  0.000000     24.000000
  0.333333  0.083333  0.000000     24.000000
  0.416667  0.083333  0.000000     24.000000
  0.500000  0.083333  0.000000     12.000000
  0.166667  0.166667  0.000000     12.000000
  0.250000  0.166667  0.000000     24.000000
  0.333333  0.166667  0.000000     24.000000
  0.416667  0.166667  0.000000     24.000000
  0.500000  0.166667  0.000000     12.000000
  0.250000  0.250000  0.000000     12.000000
  0.333333  0.250000  0.000000     24.000000
  0.416667  0.250000  0.000000     24.000000
  0.500000  0.250000  0.000000     12.000000
  0.333333  0.333333  0.000000     12.000000
  0.416667  0.333333  0.000000     24.000000
  0.500000  0.333333  0.000000     12.000000
  0.416667  0.416667  0.000000     12.000000
  0.500000  0.416667  0.000000     12.000000
  0.500000  0.500000  0.000000      3.000000
  0.083333  0.083333  0.083333      8.000000
  0.166667  0.083333  0.083333     24.000000
  0.250000  0.083333  0.083333     24.000000
  0.333333  0.083333  0.083333     24.000000
  0.416667  0.083333  0.083333     24.000000
  0.500000  0.083333  0.083333     12.000000
  0.166667  0.166667  0.083333     24.000000
  0.250000  0.166667  0.083333     48.000000
  0.333333  0.166667  0.083333     48.000000
  0.416667  0.166667  0.083333     48.000000
  0.500000  0.166667  0.083333     24.000000
  0.250000  0.250000  0.083333     24.000000
  0.333333  0.250000  0.083333     48.000000
  0.416667  0.250000  0.083333     48.000000
  0.500000  0.250000  0.083333     24.000000
  0.333333  0.333333  0.083333     24.000000
  0.416667  0.333333  0.083333     48.000000
  0.500000  0.333333  0.083333     24.000000
  0.416667  0.416667  0.083333     24.000000
  0.500000  0.416667  0.083333     24.000000
  0.500000  0.500000  0.083333      6.000000
  0.166667  0.166667  0.166667      8.000000
  0.250000  0.166667  0.166667     24.000000
  0.333333  0.166667  0.166667     24.000000
  0.416667  0.166667  0.166667     24.000000
  0.500000  0.166667  0.166667     12.000000
  0.250000  0.250000  0.166667     24.000000
  0.333333  0.250000  0.166667     48.000000
  0.416667  0.250000  0.166667     48.000000
  0.500000  0.250000  0.166667     24.000000
  0.333333  0.333333  0.166667     24.000000
  0.416667  0.333333  0.166667     48.000000
[...]
  0.416667  0.333333  0.250000     48.000000
  0.500000  0.333333  0.250000     24.000000
  0.416667  0.416667  0.250000     24.000000
  0.500000  0.416667  0.250000     24.000000
  0.500000  0.500000  0.250000      6.000000
  0.333333  0.333333  0.333333      8.000000
  0.416667  0.333333  0.333333     24.000000
  0.500000  0.333333  0.333333     12.000000
  0.416667  0.416667  0.333333     24.000000
  0.500000  0.416667  0.333333     24.000000
  0.500000  0.500000  0.333333      6.000000
  0.416667  0.416667  0.416667      8.000000
  0.500000  0.416667  0.416667     12.000000
  0.500000  0.500000  0.416667      6.000000
  0.500000  0.500000  0.500000      1.000000

 Following cartesian coordinates:
            Coordinates               Weight
  0.000000  0.000000  0.000000      1.000000
  0.013525 -0.000000  0.000000      6.000000
  0.027050 -0.000000  0.000000      6.000000
  0.040574 -0.000000  0.000000      6.000000
  0.054099 -0.000000  0.000000      6.000000
  0.067624 -0.000000  0.000000      6.000000
  0.081149 -0.000000  0.000000      3.000000
  0.013525  0.013525  0.000000     12.000000
  0.027050  0.013525  0.000000     24.000000
  0.040574  0.013525  0.000000     24.000000
  0.054099  0.013525  0.000000     24.000000
  0.067624  0.013525  0.000000     24.000000
  0.081149  0.013525  0.000000     12.000000
  0.027050  0.027050  0.000000     12.000000
  0.040574  0.027050  0.000000     24.000000
  0.054099  0.027050  0.000000     24.000000
  0.067624  0.027050  0.000000     24.000000
  0.081149  0.027050  0.000000     12.000000
  0.040574  0.040574  0.000000     12.000000
  0.054099  0.040574  0.000000     24.000000
  0.067624  0.040574  0.000000     24.000000
  0.081149  0.040574  0.000000     12.000000
  0.054099  0.054099  0.000000     12.000000
  0.067624  0.054099  0.000000     24.000000
  0.081149  0.054099  0.000000     12.000000
  0.067624  0.067624  0.000000     12.000000
  0.081149  0.067624  0.000000     12.000000
  0.081149  0.081149  0.000000      3.000000
  0.013525  0.013525  0.013525      8.000000
  0.027050  0.013525  0.013525     24.000000
  0.040574  0.013525  0.013525     24.000000
  0.054099  0.013525  0.013525     24.000000
  0.067624  0.013525  0.013525     24.000000
  0.081149  0.013525  0.013525     12.000000
  0.027050  0.027050  0.013525     24.000000
  0.040574  0.027050  0.013525     48.000000
  0.054099  0.027050  0.013525     48.000000
  0.067624  0.027050  0.013525     48.000000
  0.081149  0.027050  0.013525     24.000000
  0.040574  0.040574  0.013525     24.000000
  0.054099  0.040574  0.013525     48.000000
  0.067624  0.040574  0.013525     48.000000
  0.081149  0.040574  0.013525     24.000000
  0.054099  0.054099  0.013525     24.000000
  0.067624  0.054099  0.013525     48.000000
  0.081149  0.054099  0.013525     24.000000
  0.067624  0.067624  0.013525     24.000000
  0.081149  0.067624  0.013525     24.000000
  0.081149  0.081149  0.013525      6.000000
  0.027050  0.027050  0.027050      8.000000
  0.040574  0.027050  0.027050     24.000000
  0.054099  0.027050  0.027050     24.000000
  0.067624  0.027050  0.027050     24.000000
  0.081149  0.027050  0.027050     12.000000
  0.040574  0.040574  0.027050     24.000000
  0.054099  0.040574  0.027050     48.000000
[...]
   0.16666667  0.16666667  0.08333333       0.014
   0.25000000  0.16666667  0.08333333       0.028
   0.33333333  0.16666667  0.08333333       0.028
   0.41666667  0.16666667  0.08333333       0.028
   0.50000000  0.16666667  0.08333333       0.014
   0.25000000  0.25000000  0.08333333       0.014
   0.33333333  0.25000000  0.08333333       0.028
   0.41666667  0.25000000  0.08333333       0.028
   0.50000000  0.25000000  0.08333333       0.014
   0.33333333  0.33333333  0.08333333       0.014
   0.41666667  0.33333333  0.08333333       0.028
   0.50000000  0.33333333  0.08333333       0.014
   0.41666667  0.41666667  0.08333333       0.014
   0.50000000  0.41666667  0.08333333       0.014
   0.50000000  0.50000000  0.08333333       0.003
   0.16666667  0.16666667  0.16666667       0.005
   0.25000000  0.16666667  0.16666667       0.014
   0.33333333  0.16666667  0.16666667       0.014
   0.41666667  0.16666667  0.16666667       0.014
   0.50000000  0.16666667  0.16666667       0.007
   0.25000000  0.25000000  0.16666667       0.014
   0.33333333  0.25000000  0.16666667       0.028
   0.41666667  0.25000000  0.16666667       0.028
   0.50000000  0.25000000  0.16666667       0.014
   0.33333333  0.33333333  0.16666667       0.014
   0.41666667  0.33333333  0.16666667       0.028
[...]
   0.41666667  0.33333333  0.25000000       0.028
   0.50000000  0.33333333  0.25000000       0.014
   0.41666667  0.41666667  0.25000000       0.014
   0.50000000  0.41666667  0.25000000       0.014
   0.50000000  0.50000000  0.25000000       0.003
   0.33333333  0.33333333  0.33333333       0.005
   0.41666667  0.33333333  0.33333333       0.014
   0.50000000  0.33333333  0.33333333       0.007
   0.41666667  0.41666667  0.33333333       0.014
   0.50000000  0.41666667  0.33333333       0.014
   0.50000000  0.50000000  0.33333333       0.003
   0.41666667  0.41666667  0.41666667       0.005
   0.50000000  0.41666667  0.41666667       0.007
   0.50000000  0.50000000  0.41666667       0.003
   0.50000000  0.50000000  0.50000000       0.001

 position of ions in fractional coordinates (direct lattice)
   0.00000000  0.00000000  0.00000000
   0.50000000  0.50000000  0.50000000

 position of ions in cartesian coordinates  (Angst):
   0.00000000  0.00000000  0.00000000
   3.08076500  3.08076500  3.08076500

 k-point     1 :   0.0000 0.0000 0.0000  plane waves:    2553
 k-point     2 :   0.0833-0.0000 0.0000  plane waves:    2549
 k-point     3 :   0.1667-0.0000 0.0000  plane waves:    2573
 k-point     4 :   0.2500-0.0000 0.0000  plane waves:    2561
 k-point     5 :   0.3333-0.0000 0.0000  plane waves:    2601
 k-point     6 :   0.4167-0.0000 0.0000  plane waves:    2581
 k-point     7 :   0.5000-0.0000 0.0000  plane waves:    2594
 k-point     8 :   0.0833 0.0833 0.0000  plane waves:    2566
 k-point     9 :   0.1667 0.0833 0.0000  plane waves:    2578
 k-point    10 :   0.2500 0.0833 0.0000  plane waves:    2574
 k-point    11 :   0.3333 0.0833 0.0000  plane waves:    2584
 k-point    12 :   0.4167 0.0833 0.0000  plane waves:    2585
 k-point    13 :   0.5000 0.0833 0.0000  plane waves:    2584
 k-point    14 :   0.1667 0.1667 0.0000  plane waves:    2578
 k-point    15 :   0.2500 0.1667 0.0000  plane waves:    2585
 k-point    16 :   0.3333 0.1667 0.0000  plane waves:    2579
 k-point    17 :   0.4167 0.1667 0.0000  plane waves:    2586
 k-point    18 :   0.5000 0.1667 0.0000  plane waves:    2578
 k-point    19 :   0.2500 0.2500 0.0000  plane waves:    2612
 k-point    20 :   0.3333 0.2500 0.0000  plane waves:    2591
 k-point    21 :   0.4167 0.2500 0.0000  plane waves:    2582
 k-point    22 :   0.5000 0.2500 0.0000  plane waves:    2562
 k-point    23 :   0.3333 0.3333 0.0000  plane waves:    2592
 k-point    24 :   0.4167 0.3333 0.0000  plane waves:    2582
 k-point    25 :   0.5000 0.3333 0.0000  plane waves:    2576
 k-point    26 :   0.4167 0.4167 0.0000  plane waves:    2578
 k-point    27 :   0.5000 0.4167 0.0000  plane waves:    2574
 k-point    28 :   0.5000 0.5000 0.0000  plane waves:    2544
 k-point    29 :   0.0833 0.0833 0.0833  plane waves:    2568
 k-point    30 :   0.1667 0.0833 0.0833  plane waves:    2585
 k-point    31 :   0.2500 0.0833 0.0833  plane waves:    2582
 k-point    32 :   0.3333 0.0833 0.0833  plane waves:    2577
 k-point    33 :   0.4167 0.0833 0.0833  plane waves:    2579
 k-point    34 :   0.5000 0.0833 0.0833  plane waves:    2578
 k-point    35 :   0.1667 0.1667 0.0833  plane waves:    2585
 k-point    36 :   0.2500 0.1667 0.0833  plane waves:    2582
 k-point    37 :   0.3333 0.1667 0.0833  plane waves:    2583
 k-point    38 :   0.4167 0.1667 0.0833  plane waves:    2576
 k-point    39 :   0.5000 0.1667 0.0833  plane waves:    2578
 k-point    40 :   0.2500 0.2500 0.0833  plane waves:    2583
 k-point    41 :   0.3333 0.2500 0.0833  plane waves:    2589
 k-point    42 :   0.4167 0.2500 0.0833  plane waves:    2579
 k-point    43 :   0.5000 0.2500 0.0833  plane waves:    2570
 k-point    44 :   0.3333 0.3333 0.0833  plane waves:    2580
 k-point    45 :   0.4167 0.3333 0.0833  plane waves:    2574
 k-point    46 :   0.5000 0.3333 0.0833  plane waves:    2578
 k-point    47 :   0.4167 0.4167 0.0833  plane waves:    2577
 k-point    48 :   0.5000 0.4167 0.0833  plane waves:    2578
 k-point    49 :   0.5000 0.5000 0.0833  plane waves:    2568
 k-point    50 :   0.1667 0.1667 0.1667  plane waves:    2593
 k-point    51 :   0.2500 0.1667 0.1667  plane waves:    2588
 k-point    52 :   0.3333 0.1667 0.1667  plane waves:    2584
 k-point    53 :   0.4167 0.1667 0.1667  plane waves:    2574
 k-point    54 :   0.5000 0.1667 0.1667  plane waves:    2556
 k-point    55 :   0.2500 0.2500 0.1667  plane waves:    2577
 k-point    56 :   0.3333 0.2500 0.1667  plane waves:    2574
 k-point    57 :   0.4167 0.2500 0.1667  plane waves:    2576
 k-point    58 :   0.5000 0.2500 0.1667  plane waves:    2570
 k-point    59 :   0.3333 0.3333 0.1667  plane waves:    2577
 k-point    60 :   0.4167 0.3333 0.1667  plane waves:    2565
[...]
 k-point    70 :   0.4167 0.3333 0.2500  plane waves:    2568
 k-point    71 :   0.5000 0.3333 0.2500  plane waves:    2572
 k-point    72 :   0.4167 0.4167 0.2500  plane waves:    2568
 k-point    73 :   0.5000 0.4167 0.2500  plane waves:    2558
 k-point    74 :   0.5000 0.5000 0.2500  plane waves:    2544
 k-point    75 :   0.3333 0.3333 0.3333  plane waves:    2542
 k-point    76 :   0.4167 0.3333 0.3333  plane waves:    2562
 k-point    77 :   0.5000 0.3333 0.3333  plane waves:    2560
 k-point    78 :   0.4167 0.4167 0.3333  plane waves:    2561
 k-point    79 :   0.5000 0.4167 0.3333  plane waves:    2558
 k-point    80 :   0.5000 0.5000 0.3333  plane waves:    2548
 k-point    81 :   0.4167 0.4167 0.4167  plane waves:    2533
 k-point    82 :   0.5000 0.4167 0.4167  plane waves:    2538
 k-point    83 :   0.5000 0.5000 0.4167  plane waves:    2544
 k-point    84 :   0.5000 0.5000 0.5000  plane waves:    2512

 maximum and minimum number of plane-waves per node :      2612     2512

 maximum number of plane-waves:      2612
 maximum index in each direction:
   IXMAX=    8   IYMAX=    8   IZMAX=    8
   IXMIN=   -9   IYMIN=   -8   IZMIN=   -8

 serial   3D FFT for wavefunctions
 parallel 3D FFT for charge:
    minimum data exchange during FFTs selected (reduces bandwidth)

 Broyden mixing: mesh for mixing (old mesh)
   NGX = 17   NGY = 17   NGZ = 17
  (NGX  = 56   NGY  = 56   NGZ  = 56)
  gives a total of   4913 points

 charge density for first step will be calculated from the start-wavefunctions

 Maximum index for augmentation-charges          470 (set IRDMAX)

 initial charge from wavefunction
 First call to EWALD:  gamma=   0.288
 Maximum number of real-space cells 3x 3x 3
 Maximum number of reciprocal cells 3x 3x 3

--------------------------------------- Ionic step        1  -------------------------------------------

--------------------------------------- Iteration      1(   1)  ---------------------------------------

 eigenvalue-minimisations  :  5904
 total energy-change (2. order) :-0.1705064E+01  (-0.1891473E-06)
 number of electron      17.9999928 magnetization
 augmentation part       -4.0398954 magnetization

 Broyden mixing:
  rms(total) = 0.56989E-04    rms(broyden)= 0.56980E-04
  rms(prec ) = 0.11559E-03
  weight for this iteration     100.00

 Free energy of the ion-electron system (eV)
  alpha Z        PSCENC =        30.73942618
  Ewald energy   TEWEN  =      -688.90992671
  -Hartree energ DENC   =      -272.82351212
  -exchange      EXHF   =         0.00000000
  -V(xc)+E(xc)   XCENC  =        19.87246665
  PAW double counting   =       837.87400226     -823.96990741
  entropy T*S    EENTRO =        -0.00367927
  eigenvalues    EBANDS =      -215.83388392
  atomic energy  EATOM  =      1111.34994990
  Solvation  Ediel_sol  =         0.00000000
  free energy    TOTEN  =        -1.70506444 eV

  energy without entropy =       -1.70138517  energy(sigma->0) =       -1.70322481

--------------------------------------- Iteration      1(   2)  ---------------------------------------

 eigenvalue-minimisations  :  4848
 total energy-change (2. order) :-0.6628352E-07  (-0.4219794E-08)
 number of electron      17.9999928 magnetization
 augmentation part       -4.0398954 magnetization

 Free energy of the ion-electron system (eV)
  alpha Z        PSCENC =        30.73942618
  Ewald energy   TEWEN  =      -688.90992671
  -Hartree energ DENC   =      -272.82510831
  -exchange      EXHF   =         0.00000000
  -V(xc)+E(xc)   XCENC  =        19.87258290
  PAW double counting   =       837.88003146     -823.97606288
  entropy T*S    EENTRO =        -0.00367923
  eigenvalues    EBANDS =      -215.83227782
  atomic energy  EATOM  =      1111.34994990
  Solvation  Ediel_sol  =         0.00000000
  free energy    TOTEN  =        -1.70506451 eV

  energy without entropy =       -1.70138528  energy(sigma->0) =       -1.70322489

 average (electrostatic) potential at core
  the test charge radii are     1.1312
  (the norm of the test charge is              1.0000)
       1 -53.1232       2 -53.1232

 E-fermi :   0.4945     XC(G=0):  -5.2892     alpha+bet : -3.5458

 val. band max:        0.4850859330   @ k =   0.5000   0.4167   0.0000
 cond. band min:       0.5028594662   @ k =   0.4167   0.1667   0.0833
 fundamental gap:      0.0177735332
 Fermi energy:         0.4945221328

 k-point     1 :       0.0000    0.0000    0.0000
  band No.  band energies     occupation
      1     -23.3769      2.00000
      2     -23.3658      2.00000
      3     -10.2182      2.00000
      4     -10.2182      2.00000
      5     -10.2182      2.00000
      6     -10.1258      2.00000
      7     -10.1258      2.00000
      8     -10.1258      2.00000
      9      -1.1731      2.00000
     10       1.1497      0.00000
     11       1.1497      0.00000
     12       2.9708      0.00000
     13       2.9708      0.00000
     14       2.9708      0.00000
     15       3.4566      0.00000
     16       3.4566      0.00000
     17       3.4566      0.00000
     18       3.8160      0.00000
     19       3.8160      0.00000
     20       4.8605      0.00000
     21       4.8811      0.00000
     22       4.8811      0.00000
     23       4.8811      0.00000
     24       5.8787      0.00000
     25       5.8787      0.00000
     26       5.8787      0.00000
     27       8.7354      0.00000
     28       8.7912      0.00000
     29       8.7912      0.00000
     30       8.8787      0.00000
     31       8.8787      0.00000
     32       8.8787      0.00000
     33       9.2552      0.00000
     34       9.2552      0.00000
     35      11.0038      0.00000
     36      11.3274      0.00000
     37      11.3274      0.00000
     38      11.3274      0.00000
     39      12.4983      0.00000
     40      12.4983      0.00000
     41      12.4983      0.00000
     42      13.0543      0.00000
     43      13.4211      0.00000
     44      13.4211      0.00000
     45      13.4211      0.00000
     46      14.0532      0.00000
     47      14.0532      0.00000
     48      14.0532      0.00000

[...]

 k-point    84 :       0.5000    0.5000    0.5000
  band No.  band energies     occupation
      1     -23.3703      2.00000
      2     -23.3703      2.00000
      3     -10.1893      2.00000
      4     -10.1893      2.00000
      5     -10.1893      2.00000
      6     -10.1893      2.00000
      7     -10.1893      2.00000
      8     -10.1893      2.00000
      9       1.4734      0.00000
     10       1.4734      0.00000
     11       1.4734      0.00000
     12       1.4734      0.00000
     13       1.4734      0.00000
     14       1.4734      0.00000
     15       2.8268      0.00000
     16       2.8268      0.00000
     17       4.3354      0.00000
     18       4.3354      0.00000
     19       4.3354      0.00000
     20       4.3354      0.00000
     21       5.7692      0.00000
     22       5.7692      0.00000
     23       5.7692      0.00000
     24       5.7692      0.00000
     25       5.7692      0.00000
     26       5.7692      0.00000
     27       8.8064      0.00000
     28       8.8064      0.00000
     29       8.8064      0.00000
     30       8.8064      0.00000
     31       8.8064      0.00000
     32       8.8064      0.00000
     33       9.7049      0.00000
     34       9.7049      0.00000
     35       9.7049      0.00000
     36       9.7049      0.00000
     37       9.7049      0.00000
     38       9.7049      0.00000
     39      12.1607      0.00000
     40      12.1607      0.00000
     41      13.8418      0.00000
     42      13.8418      0.00000
     43      13.8418      0.00000
     44      13.8418      0.00000
     45      13.8418      0.00000
     46      13.8418      0.00000
     47      14.0859      0.00000
     48      14.0859      0.00000

 soft charge-density along one line, spin component           1
         0         1         2         3         4         5         6         7         8         9
 total charge-density along one line

------------------------ aborting loop because EDIFF is reached ----------------------------------------

  FORCE on cell =-STRESS in cart. coord.  units (eV):
  Direction    XX          YY          ZZ          XY          YZ          ZX
  Alpha Z    30.73943    30.73943    30.73943
  Ewald    -229.63662  -229.63662  -229.63662    -0.00000     0.00000     0.00000
  Hartree    90.94265    90.94265    90.94265    -0.00000    -0.00000    -0.00000
  E(xc)     -66.55758   -66.55758   -66.55758    -0.00000     0.00000     0.00000
  Local     -60.17964   -60.17964   -60.17964    -0.00000     0.00000    -0.00000
  n-local    19.72475    19.46705    19.29195     0.16987     0.04158     0.06239
  augment   -27.55158   -27.55158   -27.55158     0.00000     0.00000     0.00000
  Kinetic   243.39224   242.24907   242.42812     0.50953     0.39978     0.31519
  Fock        0.00000     0.00000     0.00000     0.00000     0.00000     0.00000
  Total      -0.05895    -0.05895    -0.05895    -0.00000    -0.00000    -0.00000
  in kB      -0.40379    -0.40379    -0.40379    -0.00000    -0.00000    -0.00000

 VOLUME and BASIS-vectors are now :
  energy-cutoff  :      286.41
  volume of cell :      233.92
      direct lattice vectors                 reciprocal lattice vectors
     6.161530000  0.000000000  0.000000000     0.162297351 -0.000000000  0.000000000
     0.000000000  6.161530000  0.000000000     0.000000000  0.162297351  0.000000000
     0.000000000  0.000000000  6.161530000    -0.000000000 -0.000000000  0.162297351

  length of vectors
     6.161530000  6.161530000  6.161530000     0.162297351  0.162297351  0.162297351

 FORCES acting on ions
    electron-ion (+dipol)            ewald-force                    non-local-force                 convergence-correction
   0.789E-14 0.366E-14 0.842E-14   -.131E-14 -.213E-15 0.405E-16   0.186E-25 -.322E-25 0.851E-25   -.709E-14 0.368E-15 -.127E-14
   0.178E-13 0.793E-12 0.994E-12   0.151E-14 -.122E-15 0.361E-15   0.323E-25 0.165E-25 0.168E-25   -.502E-14 -.126E-14 -.398E-14
   0.257E-13 0.797E-12 0.100E-11   0.201E-15 -.335E-15 0.402E-15   0.509E-25 -.157E-25 0.102E-24   -.121E-13 -.895E-15 -.525E-14

 POSITION                                       TOTAL-FORCE (eV/Angst)
      0.00000      0.00000      0.00000         0.000000      0.000000      0.000000
      3.08077      3.08076      3.08077        -0.000000     -0.000000     -0.000000
    total drift:                                0.000000      0.000000      0.000000

  FREE ENERGIE OF THE ION-ELECTRON SYSTEM (eV)
  free  energy   TOTEN  =        -1.70506451 eV

  energy  without entropy=       -1.70138528  energy(sigma->0) =       -1.70322489

 writing wavefunctions