 vasp.6.4.3 19Mar24 (build Jun 26 2024 13:02:28) complex

 executed on             LinuxIFC date 2025.08.08  18:42:42

 INCAR:
   ENCUT = 298.1589
   IBRION = -1
   ISMEAR = 0
   ISYM = 2
   LCHARG = True
   LWAVE = True
   SIGMA = 0.05
   SYSTEM = Sr

 POTCAR:  PAW_PBE Sr_sv 07Sep2000
|           W    W    AA    RRRRR   N    N  II  N    N   GGGG   !!!           |
|           W    W   A  A   R    R  NN   N  II  NN   N  G    G  !!!           |
|           W    W  A    A  R    R  N N  N  II  N N  N  G       !!!           |
|           W WW W  AAAAAA  RRRRR   N  N N  II  N  N N  G  GGG   !            |
|           WW  WW  A    A  R   R   N   NN  II  N   NN  G    G                |
|           W    W  A    A  R    R  N    N  II  N    N   GGGG   !!!           |
|     For optimal performance we recommend to set                             |
|       NCORE = 2 up to number-of-cores-per-socket                            |
|     This setting can greatly improve the performance of VASP for DFT.       |
|     The default, NCORE=1 might be grossly inefficient on modern             |
|     multi-core architectures or massively parallel machines. Do your        |
|     Unfortunately you need to use the default for GW and RPA                |
|     calculations (for HF NCORE is supported but not extensively tested      |
|     yet).                                                                   |

 POTCAR:  PAW_PBE Sr_sv 07Sep2000
   VRHFIN =Sr: 4s4p5s

   TITEL  = PAW_PBE Sr_sv 07Sep2000
   POMASS =   87.620; ZVAL   =   10.000    mass and valenz
   ENMAX  =  229.353; ENMIN  =  172.014 eV

PAW_PBE Sr_sv 07Sep2000                 :

 POSCAR: Sr4
  positions in direct lattice

 exchange-correlation table for PE
   RHO(1)=    0.500       N(1)  =     2000
   RHO(2)=  100.500       N(2)  =     4000

 ion  position               nearest neighbor table
   1  0.000  0.000  0.000-   2 4.26   3 4.26   2 4.26   3 4.26   2 4.26   4 4.26   2 4.26   3 4.26
                             4 4.26   3 4.26   4 4.26   4 4.26
   2  0.000  0.500  0.500-   1 4.26   4 4.26   1 4.26   4 4.26   1 4.26   3 4.26   1 4.26   3 4.26
                             4 4.26   4 4.26   3 4.26   3 4.26
   3  0.500  0.000  0.500-   1 4.26   4 4.26   1 4.26   4 4.26   2 4.26   4 4.26   4 4.26   1 4.26
                             2 4.26   1 4.26   2 4.26   2 4.26
   4  0.500  0.500  0.000-   2 4.26   3 4.26   2 4.26   3 4.26   1 4.26   3 4.26   3 4.26   1 4.26
                             2 4.26   2 4.26   1 4.26   1 4.26

  LATTYP: Found a simple cubic cell.
 ALAT       =     6.0196900000

  Lattice vectors:

 A1 = (   6.0196900000,   0.0000000000,   0.0000000000)
 A2 = (   0.0000000000,   6.0196900000,   0.0000000000)
 A3 = (   0.0000000000,   0.0000000000,   6.0196900000)

Analysis of symmetry for initial positions (statically):
 Subroutine PRICEL returns following result:

  LATTYP: Found a face centered cubic cell.
 ALAT       =     6.0196900000

[...]

   4 primitive cells build up your supercell.

 Routine SETGRP: Setting up the symmetry group for a
 simple cubic supercell.

 Subroutine GETGRP returns: Found 48 space group operations
 (whereof 48 operations were pure point group operations)
 out of a pool of 48 trial point group operations.

The static configuration has the point symmetry O_h .

Analysis of symmetry for dynamics (positions and initial velocities):
 Subroutine PRICEL returns following result:

  LATTYP: Found a face centered cubic cell.
 ALAT       =     6.0196900000

  Lattice vectors:

 A1 = (   3.0098450000,  -3.0098450000,   0.0000000000)
 A2 = (   3.0098450000,   0.0000000000,   3.0098450000)
 A3 = (   0.0000000000,  -3.0098450000,   3.0098450000)

   4 primitive cells build up your supercell.

 Routine SETGRP: Setting up the symmetry group for a
 simple cubic supercell.

 Subroutine GETGRP returns: Found 48 space group operations
 (whereof 48 operations were pure point group operations)
 out of a pool of 48 trial point group operations.

The dynamic configuration has the point symmetry O_h .

 Subroutine INISYM returns: Found 48 space group operations
 (whereof 48 operations are pure point group operations),
 and found     4 'primitive' translations

                                     Primitive cell

  volume of cell :      54.5334

  direct lattice vectors                    reciprocal lattice vectors
     3.009845000 -3.009845000  0.000000000     0.166121511 -0.166121511 -0.166121511
     3.009845000  0.000000000  3.009845000     0.166121511  0.166121511  0.166121511
     0.000000000 -3.009845000  3.009845000    -0.166121511 -0.166121511  0.166121511

  length of vectors
     4.256563620  4.256563620  4.256563620     0.287730898  0.287730898  0.287730898

  position of ions in fractional coordinates (direct lattice)
     0.000000000  0.000000000  0.000000000

  ion indices of the primitive-cell ions
   primitive index   ion index
                 1           1

 KPOINTS: Automatic kpoint scheme

Automatic generation of k-mesh.
 Grid dimensions read from file:
 generate k-points for:    8    8    8

 Generating k-lattice:

  Cartesian coordinates                     Fractional coordinates (reciprocal lattice)
     0.020765189 -0.000000000  0.000000000     0.125000000  0.000000000  0.000000000
     0.000000000  0.020765189  0.000000000     0.000000000  0.125000000  0.000000000
    -0.000000000 -0.000000000  0.020765189     0.000000000 -0.000000000  0.125000000

  Length of vectors
     0.020765189  0.020765189  0.020765189

  Shift w.r.t. Gamma in fractional coordinates (k-lattice)
     0.000000000  0.000000000  0.000000000

 Subroutine IBZKPT returns following result:

 Found     35 irreducible k-points:

 Following reciprocal coordinates:
            Coordinates               Weight
  0.000000  0.000000  0.000000      1.000000
  0.125000 -0.000000  0.000000      6.000000
  0.250000 -0.000000  0.000000      6.000000
  0.375000 -0.000000  0.000000      6.000000
  0.500000 -0.000000  0.000000      3.000000
  0.125000  0.125000  0.000000     12.000000
  0.250000  0.125000  0.000000     24.000000
  0.375000  0.125000  0.000000     24.000000
  0.500000  0.125000  0.000000     12.000000
  0.250000  0.250000  0.000000     12.000000
  0.375000  0.250000  0.000000     24.000000
  0.500000  0.250000  0.000000     12.000000
  0.375000  0.375000  0.000000     12.000000
  0.500000  0.375000  0.000000     12.000000
  0.500000  0.500000  0.000000      3.000000
  0.125000  0.125000  0.125000      8.000000
  0.250000  0.125000  0.125000     24.000000
  0.375000  0.125000  0.125000     24.000000
  0.500000  0.125000  0.125000     12.000000
  0.250000  0.250000  0.125000     24.000000
  0.375000  0.250000  0.125000     48.000000
  0.500000  0.250000  0.125000     24.000000
  0.375000  0.375000  0.125000     24.000000
  0.500000  0.375000  0.125000     24.000000
  0.500000  0.500000  0.125000      6.000000
  0.250000  0.250000  0.250000      8.000000
  0.375000  0.250000  0.250000     24.000000
  0.500000  0.250000  0.250000     12.000000
  0.375000  0.375000  0.250000     24.000000
  0.500000  0.375000  0.250000     24.000000
  0.500000  0.500000  0.250000      6.000000
  0.375000  0.375000  0.375000      8.000000
  0.500000  0.375000  0.375000     12.000000
  0.500000  0.500000  0.375000      6.000000
  0.500000  0.500000  0.500000      1.000000

 Following cartesian coordinates:
            Coordinates               Weight
  0.000000  0.000000  0.000000      1.000000
  0.020765 -0.000000  0.000000      6.000000
  0.041530 -0.000000  0.000000      6.000000
  0.062296 -0.000000  0.000000      6.000000
  0.083061 -0.000000  0.000000      3.000000
  0.020765  0.020765  0.000000     12.000000
  0.041530  0.020765  0.000000     24.000000
  0.062296  0.020765  0.000000     24.000000
  0.083061  0.020765  0.000000     12.000000
  0.041530  0.041530  0.000000     12.000000
  0.062296  0.041530  0.000000     24.000000
  0.083061  0.041530  0.000000     12.000000
  0.062296  0.062296  0.000000     12.000000
  0.083061  0.062296  0.000000     12.000000
  0.083061  0.083061  0.000000      3.000000
  0.020765  0.020765  0.020765      8.000000
  0.041530  0.020765  0.020765     24.000000
  0.062296  0.020765  0.020765     24.000000
  0.083061  0.020765  0.020765     12.000000
  0.041530  0.041530  0.020765     24.000000
  0.062296  0.041530  0.020765     48.000000
  0.083061  0.041530  0.020765     24.000000
  0.062296  0.062296  0.020765     24.000000
  0.083061  0.062296  0.020765     24.000000
  0.083061  0.083061  0.020765      6.000000
  0.041530  0.041530  0.041530      8.000000
  0.062296  0.041530  0.041530     24.000000
  0.083061  0.041530  0.041530     12.000000
  0.062296  0.062296  0.041530     24.000000
  0.083061  0.062296  0.041530     24.000000
  0.083061  0.083061  0.041530      6.000000
  0.062296  0.062296  0.062296      8.000000
  0.083061  0.062296  0.062296     12.000000
  0.083061  0.083061  0.062296      6.000000
  0.083061  0.083061  0.083061      1.000000

 Subroutine IBZKPT_HF returns following result:

 Found    512 k-points in 1st BZ
 the following    512 k-points will be used (e.g. in the exchange kernel)
 Following reciprocal coordinates:   # in IRBZ
  0.000000  0.000000  0.000000    0.00195312   1 t-inv F
  0.125000 -0.000000  0.000000    0.00195312   2 t-inv F
  0.250000 -0.000000  0.000000    0.00195312   3 t-inv F
  0.375000 -0.000000  0.000000    0.00195312   4 t-inv F
  0.500000 -0.000000  0.000000    0.00195312   5 t-inv F
  0.125000  0.125000  0.000000    0.00195312   6 t-inv F
  0.250000  0.125000  0.000000    0.00195312   7 t-inv F
  0.375000  0.125000  0.000000    0.00195312   8 t-inv F
  0.500000  0.125000  0.000000    0.00195312   9 t-inv F
  0.250000  0.250000  0.000000    0.00195312  10 t-inv F
  0.375000  0.250000  0.000000    0.00195312  11 t-inv F
  0.500000  0.250000  0.000000    0.00195312  12 t-inv F
  0.375000  0.375000  0.000000    0.00195312  13 t-inv F
  0.500000  0.375000  0.000000    0.00195312  14 t-inv F
  0.500000  0.500000  0.000000    0.00195312  15 t-inv F
  0.125000  0.125000  0.125000    0.00195312  16 t-inv F
  0.250000  0.125000  0.125000    0.00195312  17 t-inv F
  0.375000  0.125000  0.125000    0.00195312  18 t-inv F
  0.500000  0.125000  0.125000    0.00195312  19 t-inv F
  0.250000  0.250000  0.125000    0.00195312  20 t-inv F
  0.375000  0.250000  0.125000    0.00195312  21 t-inv F
  0.500000  0.250000  0.125000    0.00195312  22 t-inv F
  0.375000  0.375000  0.125000    0.00195312  23 t-inv F
  0.500000  0.375000  0.125000    0.00195312  24 t-inv F
  0.500000  0.500000  0.125000    0.00195312  25 t-inv F
  0.250000  0.250000  0.250000    0.00195312  26 t-inv F
  0.375000  0.250000  0.250000    0.00195312  27 t-inv F
  0.500000  0.250000  0.250000    0.00195312  28 t-inv F
  0.375000  0.375000  0.250000    0.00195312  29 t-inv F
  0.500000  0.375000  0.250000    0.00195312  30 t-inv F
  0.500000  0.500000  0.250000    0.00195312  31 t-inv F
  0.375000  0.375000  0.375000    0.00195312  32 t-inv F
  0.500000  0.375000  0.375000    0.00195312  33 t-inv F
  0.500000  0.500000  0.375000    0.00195312  34 t-inv F
  0.500000  0.500000  0.500000    0.00195312  35 t-inv F
[...]
     6.019690000  0.000000000  0.000000000     0.166121511 -0.000000000  0.000000000
     0.000000000  6.019690000  0.000000000     0.000000000  0.166121511  0.000000000
     0.000000000  0.000000000  6.019690000    -0.000000000 -0.000000000  0.166121511

  length of vectors

 k-points in units of 2pi/SCALE and weight: Automatic kpoint scheme
   0.00000000  0.00000000  0.00000000       0.002
   0.02076519 -0.00000000  0.00000000       0.012
   0.04153038 -0.00000000  0.00000000       0.012
   0.06229557 -0.00000000  0.00000000       0.012
   0.08306076 -0.00000000  0.00000000       0.006
   0.02076519  0.02076519  0.00000000       0.023
   0.04153038  0.02076519  0.00000000       0.047
   0.06229557  0.02076519  0.00000000       0.047
   0.08306076  0.02076519  0.00000000       0.023
   0.04153038  0.04153038  0.00000000       0.023
   0.06229557  0.04153038  0.00000000       0.047
   0.08306076  0.04153038  0.00000000       0.023
   0.06229557  0.06229557  0.00000000       0.023
   0.08306076  0.06229557  0.00000000       0.023
   0.08306076  0.08306076  0.00000000       0.006
   0.02076519  0.02076519  0.02076519       0.016
   0.04153038  0.02076519  0.02076519       0.047
   0.06229557  0.02076519  0.02076519       0.047
   0.08306076  0.02076519  0.02076519       0.023
   0.04153038  0.04153038  0.02076519       0.047
   0.06229557  0.04153038  0.02076519       0.094
   0.08306076  0.04153038  0.02076519       0.047
   0.06229557  0.06229557  0.02076519       0.047
   0.08306076  0.06229557  0.02076519       0.047
   0.08306076  0.08306076  0.02076519       0.012
   0.04153038  0.04153038  0.04153038       0.016
   0.06229557  0.04153038  0.04153038       0.047
   0.08306076  0.04153038  0.04153038       0.023
   0.06229557  0.06229557  0.04153038       0.047
   0.08306076  0.06229557  0.04153038       0.047
   0.08306076  0.08306076  0.04153038       0.012
   0.06229557  0.06229557  0.06229557       0.016
   0.08306076  0.06229557  0.06229557       0.023
   0.08306076  0.08306076  0.06229557       0.012
   0.08306076  0.08306076  0.08306076       0.002

 k-points in reciprocal lattice and weights: Automatic kpoint scheme
   0.00000000  0.00000000  0.00000000       0.002
   0.12500000 -0.00000000  0.00000000       0.012
   0.25000000 -0.00000000  0.00000000       0.012
   0.37500000 -0.00000000  0.00000000       0.012
   0.50000000 -0.00000000  0.00000000       0.006
   0.12500000  0.12500000  0.00000000       0.023
   0.25000000  0.12500000  0.00000000       0.047
   0.37500000  0.12500000  0.00000000       0.047
   0.50000000  0.12500000  0.00000000       0.023
   0.25000000  0.25000000  0.00000000       0.023
   0.37500000  0.25000000  0.00000000       0.047
   0.50000000  0.25000000  0.00000000       0.023
   0.37500000  0.37500000  0.00000000       0.023
   0.50000000  0.37500000  0.00000000       0.023
   0.50000000  0.50000000  0.00000000       0.006
   0.12500000  0.12500000  0.12500000       0.016
   0.25000000  0.12500000  0.12500000       0.047
   0.37500000  0.12500000  0.12500000       0.047
   0.50000000  0.12500000  0.12500000       0.023
   0.25000000  0.25000000  0.12500000       0.047
   0.37500000  0.25000000  0.12500000       0.094
   0.50000000  0.25000000  0.12500000       0.047
   0.37500000  0.37500000  0.12500000       0.047
   0.50000000  0.37500000  0.12500000       0.047
   0.50000000  0.50000000  0.12500000       0.012
   0.25000000  0.25000000  0.25000000       0.016
   0.37500000  0.25000000  0.25000000       0.047
   0.50000000  0.25000000  0.25000000       0.023
   0.37500000  0.37500000  0.25000000       0.047
   0.50000000  0.37500000  0.25000000       0.047
   0.50000000  0.50000000  0.25000000       0.012
   0.37500000  0.37500000  0.37500000       0.016
   0.50000000  0.37500000  0.37500000       0.023
   0.50000000  0.50000000  0.37500000       0.012
   0.50000000  0.50000000  0.50000000       0.002

 position of ions in fractional coordinates (direct lattice)
   0.00000000  0.00000000  0.00000000
   0.00000000  0.50000000  0.50000000
   0.50000000  0.00000000  0.50000000
   0.50000000  0.50000000  0.00000000

 position of ions in cartesian coordinates  (Angst):
   0.00000000  0.00000000  0.00000000
   0.00000000  3.00984500  3.00984500
   3.00984500  0.00000000  3.00984500
   3.00984500  3.00984500  0.00000000

 k-point     1 :   0.0000 0.0000 0.0000  plane waves:    2517
 k-point     2 :   0.1250-0.0000 0.0000  plane waves:    2545
 k-point     3 :   0.2500-0.0000 0.0000  plane waves:    2545
 k-point     4 :   0.3750-0.0000 0.0000  plane waves:    2553
 k-point     5 :   0.5000-0.0000 0.0000  plane waves:    2560
 k-point     6 :   0.1250 0.1250 0.0000  plane waves:    2556
 k-point     7 :   0.2500 0.1250 0.0000  plane waves:    2564
 k-point     8 :   0.3750 0.1250 0.0000  plane waves:    2559
 k-point     9 :   0.5000 0.1250 0.0000  plane waves:    2548
 k-point    10 :   0.2500 0.2500 0.0000  plane waves:    2556
 k-point    11 :   0.3750 0.2500 0.0000  plane waves:    2564
 k-point    12 :   0.5000 0.2500 0.0000  plane waves:    2562
 k-point    13 :   0.3750 0.3750 0.0000  plane waves:    2562
 k-point    14 :   0.5000 0.3750 0.0000  plane waves:    2542
 k-point    15 :   0.5000 0.5000 0.0000  plane waves:    2544
 k-point    16 :   0.1250 0.1250 0.1250  plane waves:    2563
 k-point    17 :   0.2500 0.1250 0.1250  plane waves:    2547
 k-point    18 :   0.3750 0.1250 0.1250  plane waves:    2553
 k-point    19 :   0.5000 0.1250 0.1250  plane waves:    2546
 k-point    20 :   0.2500 0.2500 0.1250  plane waves:    2552
 k-point    21 :   0.3750 0.2500 0.1250  plane waves:    2557
 k-point    22 :   0.5000 0.2500 0.1250  plane waves:    2560
 k-point    23 :   0.3750 0.3750 0.1250  plane waves:    2554
 k-point    24 :   0.5000 0.3750 0.1250  plane waves:    2554
 k-point    25 :   0.5000 0.5000 0.1250  plane waves:    2540
 k-point    26 :   0.2500 0.2500 0.2500  plane waves:    2560
 k-point    27 :   0.3750 0.2500 0.2500  plane waves:    2541
 k-point    28 :   0.5000 0.2500 0.2500  plane waves:    2534
 k-point    29 :   0.3750 0.3750 0.2500  plane waves:    2532
 k-point    30 :   0.5000 0.3750 0.2500  plane waves:    2540
 k-point    31 :   0.5000 0.5000 0.2500  plane waves:    2528
 k-point    32 :   0.3750 0.3750 0.3750  plane waves:    2524
 k-point    33 :   0.5000 0.3750 0.3750  plane waves:    2528
 k-point    34 :   0.5000 0.5000 0.3750  plane waves:    2520
 k-point    35 :   0.5000 0.5000 0.5000  plane waves:    2512

 maximum and minimum number of plane-waves per node :      2564     2512

 maximum number of plane-waves:      2564
 maximum index in each direction:
   IXMAX=    8   IYMAX=    8   IZMAX=    8
   IXMIN=   -8   IYMIN=   -8   IZMIN=   -8

 serial   3D FFT for wavefunctions
 parallel 3D FFT for charge:
    minimum data exchange during FFTs selected (reduces bandwidth)

 Broyden mixing: mesh for mixing (old mesh)
   NGX = 17   NGY = 17   NGZ = 17
  (NGX  = 56   NGY  = 56   NGZ  = 56)
  gives a total of   4913 points

 charge density for first step will be calculated from the start-wavefunctions

 Maximum index for augmentation-charges          570 (set IRDMAX)

 initial charge from wavefunction
 First call to EWALD:  gamma=   0.294
 Maximum number of real-space cells 3x 3x 3
 Maximum number of reciprocal cells 3x 3x 3

--------------------------------------- Ionic step        1  -------------------------------------------

--------------------------------------- Iteration      1(   1)  ---------------------------------------

 eigenvalue-minimisations  :  2880
 total energy-change (2. order) :-0.6553491E+01  (-0.1491382E-05)
 number of electron      40.0000008 magnetization
 augmentation part        1.5854959 magnetization

 Broyden mixing:
  rms(total) = 0.80381E-03    rms(broyden)= 0.80379E-03
  rms(prec ) = 0.83117E-03
  weight for this iteration     100.00

 Free energy of the ion-electron system (eV)
  alpha Z        PSCENC =       137.50984215
  Ewald energy   TEWEN  =     -2193.50294640
  -Hartree energ DENC   =      -819.62494533
  -exchange      EXHF   =         0.00000000
  -V(xc)+E(xc)   XCENC  =       137.44143092
  PAW double counting   =      3108.22373245    -3064.94107000
  entropy T*S    EENTRO =        -0.00939975
  eigenvalues    EBANDS =      -683.73852832
  atomic energy  EATOM  =      3372.08839373
  Solvation  Ediel_sol  =         0.00000000
  free energy    TOTEN  =        -6.55349055 eV

  energy without entropy =       -6.54409080  energy(sigma->0) =       -6.54879067

--------------------------------------- Iteration      1(   2)  ---------------------------------------

 eigenvalue-minimisations  :  2592
 total energy-change (2. order) :-0.4316144E-07  (-0.1012431E-06)
 number of electron      40.0000008 magnetization
 augmentation part        1.5854959 magnetization

 Free energy of the ion-electron system (eV)
  alpha Z        PSCENC =       137.50984215
  Ewald energy   TEWEN  =     -2193.50294640
  -Hartree energ DENC   =      -819.62262092
  -exchange      EXHF   =         0.00000000
  -V(xc)+E(xc)   XCENC  =       137.44127916
  PAW double counting   =      3108.20674721    -3064.92269767
  entropy T*S    EENTRO =        -0.00939983
  eigenvalues    EBANDS =      -683.74208802
  atomic energy  EATOM  =      3372.08839373
  Solvation  Ediel_sol  =         0.00000000
  free energy    TOTEN  =        -6.55349059 eV

  energy without entropy =       -6.54409076  energy(sigma->0) =       -6.54879068

 average (electrostatic) potential at core
  the test charge radii are     1.1929
  (the norm of the test charge is              1.0000)
       1 -40.9683       2 -40.9683       3 -40.9683       4 -40.9683

 E-fermi :   1.6182     XC(G=0):  -7.3757     alpha+bet : -6.1873

 val. band max:        1.6175979476   @ k =   0.3750   0.2500   0.1250
 cond. band min:       1.6349548062   @ k =   0.5000   0.2500   0.2500
 fundamental gap:      0.0173568587
 Fermi energy:         1.6181646074

 k-point     1 :       0.0000    0.0000    0.0000
  band No.  band energies     occupation
      1     -34.9857      2.00000
      2     -34.9665      2.00000
      3     -34.9665      2.00000
      4     -34.9665      2.00000
      5     -17.0608      2.00000
      6     -17.0608      2.00000
      7     -17.0608      2.00000
      8     -16.9445      2.00000
      9     -16.9445      2.00000
     10     -16.9445      2.00000
     11     -16.9445      2.00000
     12     -16.9445      2.00000
     13     -16.9445      2.00000
     14     -16.8709      2.00000
     15     -16.8709      2.00000
     16     -16.8709      2.00000
     17      -2.0466      2.00000
     18       0.9621      2.00000
     19       0.9621      2.00000
     20       0.9621      2.00000
     21       1.9519      0.00000
     22       1.9519      0.00000
     23       1.9519      0.00000
     24       2.6858      0.00000
     25       2.6858      0.00000
     26       2.6858      0.00000
     27       3.9674      0.00000
     28       3.9674      0.00000
     29       3.9674      0.00000
     30       5.4476      0.00000
     31       5.4476      0.00000
     32       6.5061      0.00000
     33       6.5061      0.00000
     34       6.5061      0.00000
     35       6.8054      0.00000
     36       6.8054      0.00000
     37       6.8054      0.00000
     38       6.8054      0.00000
     39       6.8054      0.00000
     40       6.8054      0.00000
     41       6.9657      0.00000
     42       6.9657      0.00000
     43       6.9657      0.00000
     44       6.9657      0.00000
     45       6.9657      0.00000
     46       6.9657      0.00000
     47       7.5195      0.00000
     48       7.5195      0.00000

[...]

 k-point    35 :       0.5000    0.5000    0.5000
  band No.  band energies     occupation
      1     -34.9712      2.00000
      2     -34.9712      2.00000
      3     -34.9712      2.00000
      4     -34.9712      2.00000
      5     -17.0727      2.00000
      6     -17.0727      2.00000
      7     -17.0727      2.00000
      8     -17.0727      2.00000
      9     -16.8986      2.00000
     10     -16.8986      2.00000
     11     -16.8986      2.00000
     12     -16.8986      2.00000
     13     -16.8986      2.00000
     14     -16.8986      2.00000
     15     -16.8986      2.00000
     16     -16.8986      2.00000
     17       0.4895      2.00000
     18       0.4895      2.00000
     19       0.4895      2.00000
     20       0.4895      2.00000
     21       1.6874      0.05018
     22       1.6874      0.05018
     23       1.6874      0.05018
     24       1.6874      0.05018
     25       3.8068      0.00000
     26       3.8068      0.00000
     27       3.8068      0.00000
     28       3.8068      0.00000
     29       3.8068      0.00000
     30       3.8068      0.00000
     31       3.8068      0.00000
     32       3.8068      0.00000
     33       6.4991      0.00000
     34       6.4991      0.00000
     35       6.4991      0.00000
     36       6.4991      0.00000
     37       6.4991      0.00000
     38       6.4991      0.00000
     39       6.4991      0.00000
     40       6.4991      0.00000
     41       7.2778      0.00000
     42       7.2778      0.00000
     43       7.2778      0.00000
     44       7.2778      0.00000
     45       8.4254      0.00000
     46       8.4254      0.00000
     47       8.4254      0.00000
     48       8.4254      0.00000

 soft charge-density along one line, spin component           1
         0         1         2         3         4         5         6         7         8         9
 total charge-density along one line

------------------------ aborting loop because EDIFF is reached ----------------------------------------

  FORCE on cell =-STRESS in cart. coord.  units (eV):
  Direction    XX          YY          ZZ          XY          YZ          ZX
  Alpha Z   137.50984   137.50984   137.50984
  Ewald    -731.16797  -731.16797  -731.16797     0.00000     0.00000     0.00000
  Hartree   273.20764   273.20764   273.20764    -0.00000    -0.00000    -0.00000
  E(xc)    -147.45000  -147.45000  -147.45000     0.00000     0.00000     0.00000
  Local     117.35735   117.35735   117.35735     0.00000     0.00000    -0.00000
  n-local  -216.64030  -218.11885  -222.59832     0.06334    -0.40966    -0.24708
  augment    10.35276    10.35276    10.35276    -0.00000     0.00000    -0.00000
  Kinetic   559.40951   559.91727   558.30555    -1.54028    -0.26332    -0.91784
  Fock        0.00000     0.00000     0.00000     0.00000     0.00000     0.00000
  Total      -0.09876    -0.09876    -0.09876     0.00000     0.00000    -0.00000
  in kB      -0.72539    -0.72539    -0.72539     0.00000     0.00000    -0.00000

 VOLUME and BASIS-vectors are now :
  energy-cutoff  :      298.16
  volume of cell :      218.13
      direct lattice vectors                 reciprocal lattice vectors
     6.019690000  0.000000000  0.000000000     0.166121511 -0.000000000  0.000000000
     0.000000000  6.019690000  0.000000000     0.000000000  0.166121511  0.000000000
     0.000000000  0.000000000  6.019690000    -0.000000000 -0.000000000  0.166121511

  length of vectors
     6.019690000  6.019690000  6.019690000     0.166121511  0.166121511  0.166121511

 FORCES acting on ions
    electron-ion (+dipol)            ewald-force                    non-local-force                 convergence-correction
   -.232E-14 -.166E-14 -.327E-14   -.529E-14 -.237E-14 0.153E-14   -.384E-24 0.119E-24 -.845E-24   -.112E-13 0.247E-15 -.878E-14
   -.238E-14 0.112E-12 0.108E-12   -.505E-14 0.363E-14 0.161E-14   0.815E-25 -.516E-24 -.582E-24   -.141E-13 -.246E-14 -.216E-13
   0.110E-12 -.141E-14 0.317E-11   0.481E-14 -.397E-14 0.158E-14   0.414E-25 -.206E-24 -.274E-24   -.992E-14 -.378E-14 -.188E-13
   0.110E-12 0.146E-11 0.965E-12   0.505E-14 0.203E-14 -.505E-14   0.118E-24 -.343E-25 0.183E-24   -.134E-13 -.193E-14 -.664E-14
   0.215E-12 0.157E-11 0.424E-11   -.478E-15 -.689E-15 -.337E-15   -.143E-24 -.636E-24 -.152E-23   -.487E-13 -.792E-14 -.557E-13

 POSITION                                       TOTAL-FORCE (eV/Angst)
      0.00000      0.00000      0.00000        -0.000000      0.000000      0.000000
      0.00000      3.00984      3.00984        -0.000000      0.000000      0.000000
      3.00984      0.00000      3.00984         0.000000     -0.000000     -0.000000
      3.00985      3.00984      0.00000         0.000000      0.000000      0.000000
    total drift:                                0.000000      0.000000      0.000000

  FREE ENERGIE OF THE ION-ELECTRON SYSTEM (eV)
  free  energy   TOTEN  =        -6.55349059 eV

  energy  without entropy=       -6.54409076  energy(sigma->0) =       -6.54879068

 writing wavefunctions