 vasp.6.4.3 19Mar24 (build Jun 26 2024 13:02:28) complex

 executed on             LinuxIFC date 2025.08.08  20:04:07

 INCAR:
   ENCUT = 290.7671
   IBRION = -1
   ISMEAR = 0
   ISYM = 2
   LCHARG = True
   LSORBIT = True
   LWAVE = True
   SAXIS = 0 0 1
   SIGMA = 0.05
   SYSTEM = Ta

 POTCAR:  PAW_PBE Ta_pv 07Sep2000
|           W    W    AA    RRRRR   N    N  II  N    N   GGGG   !!!           |
|           W    W   A  A   R    R  NN   N  II  NN   N  G    G  !!!           |
|           W    W  A    A  R    R  N N  N  II  N N  N  G       !!!           |
|           W WW W  AAAAAA  RRRRR   N  N N  II  N  N N  G  GGG   !            |
|           WW  WW  A    A  R   R   N   NN  II  N   NN  G    G                |
|           W    W  A    A  R    R  N    N  II  N    N   GGGG   !!!           |
|     You use a magnetic or noncollinear calculation, but did not specify     |
|     the initial magnetic moment with the MAGMOM tag. Note that a            |
|     default of 1 will be used for all atoms. This ferromagnetic setup       |
|     may break the symmetry of the crystal, in particular it may rule        |
|     out finding an antiferromagnetic solution. Thence, we recommend         |
|     setting the initial magnetic moment manually or verifying carefully     |
|     that this magnetic setup is desired.                                    |

 POTCAR:  PAW_PBE Ta_pv 07Sep2000
   VRHFIN =Ta:  5p6s5d

   TITEL  = PAW_PBE Ta_pv 07Sep2000
   POMASS =  180.948; ZVAL   =   11.000    mass and valenz
   ENMAX  =  223.667; ENMIN  =  167.750 eV

PAW_PBE Ta_pv 07Sep2000                 :

 POSCAR: Ta2
  positions in direct lattice

 exchange-correlation table for PE
   RHO(1)=    0.500       N(1)  =     2000
   RHO(2)=  100.500       N(2)  =     4000

 ion  position               nearest neighbor table
   1  0.000  0.000  0.000-   2 2.88   2 2.88   2 2.88   2 2.88   2 2.88   2 2.88   2 2.88   2 2.88

   2  0.500  0.500  0.500-   1 2.88   1 2.88   1 2.88   1 2.88   1 2.88   1 2.88   1 2.88   1 2.88

  LATTYP: Found a simple cubic cell.
 ALAT       =     3.3216900000

  Lattice vectors:

 A1 = (   3.3216900000,   0.0000000000,   0.0000000000)
 A2 = (   0.0000000000,   3.3216900000,   0.0000000000)
 A3 = (   0.0000000000,   0.0000000000,   3.3216900000)

Analysis of symmetry for initial positions (statically):
 Subroutine PRICEL returns following result:

  LATTYP: Found a body centered cubic cell.
 ALAT       =     3.3216900000

[...]

   2 primitive cells build up your supercell.

 Routine SETGRP: Setting up the symmetry group for a
 simple cubic supercell.

 Subroutine GETGRP returns: Found 48 space group operations
 (whereof 48 operations were pure point group operations)
 out of a pool of 48 trial point group operations.

The static configuration has the point symmetry O_h .

Analysis of symmetry for dynamics (positions and initial velocities):
 Subroutine PRICEL returns following result:

[...]

The dynamic configuration has the point symmetry O_h .

Analysis of structural, dynamic, and magnetic symmetry:
 Subroutine PRICEL returns following result:

  LATTYP: Found a body centered cubic cell.
 ALAT       =     3.3216900000

  Lattice vectors:

 A1 = (   1.6608450000,   1.6608450000,  -1.6608450000)
 A2 = (  -1.6608450000,   1.6608450000,   1.6608450000)
 A3 = (   1.6608450000,  -1.6608450000,   1.6608450000)

   2 primitive cells build up your supercell.

 Routine SETGRP: Setting up the symmetry group for a
 simple cubic supercell.

 Subroutine GETGRP returns: Found  6 space group operations
 (whereof  6 operations were pure point group operations)
 out of a pool of 48 trial point group operations.

The overall configuration has the point symmetry S_6 .

 Subroutine INISYM returns: Found  6 space group operations
 (whereof  6 operations are pure point group operations),
 and found     2 'primitive' translations

                                     Primitive cell

  volume of cell :      18.3251

  direct lattice vectors                    reciprocal lattice vectors
     1.660845000  1.660845000 -1.660845000     0.301051573  0.301051573 -0.000000000
    -1.660845000  1.660845000  1.660845000    -0.000000000  0.301051573  0.301051573
     1.660845000 -1.660845000  1.660845000     0.301051573 -0.000000000  0.301051573

  length of vectors
     2.876667923  2.876667923  2.876667923     0.425751218  0.425751218  0.425751218

  position of ions in fractional coordinates (direct lattice)
     0.000000000  0.000000000  0.000000000

  ion indices of the primitive-cell ions
   primitive index   ion index
                 1           1

 KPOINTS: Automatic kpoint scheme

Automatic generation of k-mesh.
 Grid dimensions read from file:
 generate k-points for:   12   12   12

 Generating k-lattice:

  Cartesian coordinates                     Fractional coordinates (reciprocal lattice)
     0.025087631 -0.000000000  0.000000000     0.083333333 -0.000000000  0.000000000
     0.000000000  0.025087631  0.000000000     0.000000000  0.083333333  0.000000000
    -0.000000000 -0.000000000  0.025087631    -0.000000000 -0.000000000  0.083333333

  Length of vectors
     0.025087631  0.025087631  0.025087631

  Shift w.r.t. Gamma in fractional coordinates (k-lattice)
     0.000000000  0.000000000  0.000000000

 Subroutine IBZKPT returns following result:

 Found    294 irreducible k-points:

 Following reciprocal coordinates:
            Coordinates               Weight
  0.000000  0.000000  0.000000      1.000000
  0.083333 -0.000000  0.000000      6.000000
  0.166667 -0.000000  0.000000      6.000000
  0.250000 -0.000000  0.000000      6.000000
  0.333333 -0.000000  0.000000      6.000000
  0.416667 -0.000000  0.000000      6.000000
  0.500000 -0.000000  0.000000      3.000000
  0.083333  0.083333  0.000000      6.000000
 -0.083333  0.083333  0.000000      6.000000
  0.166667  0.083333  0.000000      6.000000
 -0.083333  0.166667  0.000000      6.000000
 -0.000000  0.083333  0.166667      6.000000
 -0.000000 -0.166667  0.083333      6.000000
  0.250000  0.083333  0.000000      6.000000
 -0.083333  0.250000  0.000000      6.000000
  0.000000  0.083333  0.250000      6.000000
 -0.000000 -0.250000  0.083333      6.000000
  0.333333  0.083333  0.000000      6.000000
 -0.083333  0.333333  0.000000      6.000000
 -0.000000  0.083333  0.333333      6.000000
 -0.000000 -0.333333  0.083333      6.000000
  0.416667  0.083333  0.000000      6.000000
 -0.083333  0.416667  0.000000      6.000000
  0.000000  0.083333  0.416667      6.000000
 -0.000000 -0.416667  0.083333      6.000000
  0.500000  0.083333  0.000000      6.000000
 -0.083333  0.500000  0.000000      6.000000
  0.166667  0.166667  0.000000      6.000000
 -0.166667  0.166667  0.000000      6.000000
  0.250000  0.166667  0.000000      6.000000
 -0.166667  0.250000  0.000000      6.000000
  0.000000  0.166667  0.250000      6.000000
 -0.000000 -0.250000  0.166667      6.000000
  0.333333  0.166667  0.000000      6.000000
 -0.166667  0.333333  0.000000      6.000000
 -0.000000  0.166667  0.333333      6.000000
 -0.000000 -0.333333  0.166667      6.000000
  0.416667  0.166667  0.000000      6.000000
 -0.166667  0.416667  0.000000      6.000000
  0.000000  0.166667  0.416667      6.000000
 -0.000000 -0.416667  0.166667      6.000000
  0.500000  0.166667  0.000000      6.000000
 -0.166667  0.500000  0.000000      6.000000
  0.250000  0.250000  0.000000      6.000000
 -0.250000  0.250000  0.000000      6.000000
  0.333333  0.250000  0.000000      6.000000
 -0.250000  0.333333  0.000000      6.000000
 -0.000000  0.250000  0.333333      6.000000
  0.000000 -0.333333  0.250000      6.000000
  0.416667  0.250000  0.000000      6.000000
 -0.250000  0.416667  0.000000      6.000000
  0.000000  0.250000  0.416667      6.000000
  0.000000 -0.416667  0.250000      6.000000
  0.500000  0.250000  0.000000      6.000000
 -0.250000  0.500000  0.000000      6.000000
  0.333333  0.333333  0.000000      6.000000
 -0.333333  0.333333  0.000000      6.000000
  0.416667  0.333333  0.000000      6.000000
 -0.333333  0.416667  0.000000      6.000000
  0.000000  0.333333  0.416667      6.000000
[...]
  0.416667  0.416667  0.333333      6.000000
 -0.416667  0.416667  0.333333      6.000000
 -0.416667  0.333333  0.416667      6.000000
 -0.333333  0.416667  0.416667      6.000000
  0.500000  0.416667  0.333333      6.000000
 -0.416667  0.500000  0.333333      6.000000
  0.500000  0.333333  0.416667      6.000000
  0.500000 -0.416667  0.333333      6.000000
  0.500000  0.500000  0.333333      6.000000
  0.416667  0.416667  0.416667      2.000000
 -0.416667  0.416667  0.416667      6.000000
  0.500000  0.416667  0.416667      6.000000
 -0.416667  0.500000  0.416667      6.000000
  0.500000  0.500000  0.416667      6.000000
  0.500000  0.500000  0.500000      1.000000

 Following cartesian coordinates:
            Coordinates               Weight
  0.000000  0.000000  0.000000      1.000000
  0.025088 -0.000000  0.000000      6.000000
  0.050175 -0.000000  0.000000      6.000000
  0.075263 -0.000000  0.000000      6.000000
  0.100351 -0.000000  0.000000      6.000000
  0.125438 -0.000000  0.000000      6.000000
  0.150526 -0.000000  0.000000      3.000000
  0.025088  0.025088  0.000000      6.000000
 -0.025088  0.025088  0.000000      6.000000
  0.050175  0.025088  0.000000      6.000000
 -0.025088  0.050175  0.000000      6.000000
 -0.000000  0.025088  0.050175      6.000000
 -0.000000 -0.050175  0.025088      6.000000
  0.075263  0.025088  0.000000      6.000000
 -0.025088  0.075263  0.000000      6.000000
 -0.000000  0.025088  0.075263      6.000000
 -0.000000 -0.075263  0.025088      6.000000
  0.100351  0.025088  0.000000      6.000000
 -0.025088  0.100351  0.000000      6.000000
 -0.000000  0.025088  0.100351      6.000000
 -0.000000 -0.100351  0.025088      6.000000
  0.125438  0.025088  0.000000      6.000000
 -0.025088  0.125438  0.000000      6.000000
 -0.000000  0.025088  0.125438      6.000000
 -0.000000 -0.125438  0.025088      6.000000
  0.150526  0.025088  0.000000      6.000000
 -0.025088  0.150526  0.000000      6.000000
  0.050175  0.050175  0.000000      6.000000
 -0.050175  0.050175  0.000000      6.000000
  0.075263  0.050175  0.000000      6.000000
 -0.050175  0.075263  0.000000      6.000000
 -0.000000  0.050175  0.075263      6.000000
 -0.000000 -0.075263  0.050175      6.000000
  0.100351  0.050175  0.000000      6.000000
 -0.050175  0.100351  0.000000      6.000000
 -0.000000  0.050175  0.100351      6.000000
 -0.000000 -0.100351  0.050175      6.000000
  0.125438  0.050175  0.000000      6.000000
 -0.050175  0.125438  0.000000      6.000000
 -0.000000  0.050175  0.125438      6.000000
 -0.000000 -0.125438  0.050175      6.000000
  0.150526  0.050175  0.000000      6.000000
 -0.050175  0.150526  0.000000      6.000000
  0.075263  0.075263  0.000000      6.000000
 -0.075263  0.075263  0.000000      6.000000
  0.100351  0.075263  0.000000      6.000000
 -0.075263  0.100351  0.000000      6.000000
 -0.000000  0.075263  0.100351      6.000000
 -0.000000 -0.100351  0.075263      6.000000
  0.125438  0.075263  0.000000      6.000000
 -0.075263  0.125438  0.000000      6.000000
[...]
 k-point    10 :   0.1667 0.0833 0.0000  plane waves:     838
 k-point    11 :  -0.0833 0.1667 0.0000  plane waves:     838
 k-point    12 :  -0.0000 0.0833 0.1667  plane waves:     838
 k-point    13 :  -0.0000-0.1667 0.0833  plane waves:     838
 k-point    14 :   0.2500 0.0833 0.0000  plane waves:     844
 k-point    15 :  -0.0833 0.2500 0.0000  plane waves:     844
 k-point    16 :   0.0000 0.0833 0.2500  plane waves:     844
 k-point    17 :  -0.0000-0.2500 0.0833  plane waves:     844
 k-point    18 :   0.3333 0.0833 0.0000  plane waves:     840
 k-point    19 :  -0.0833 0.3333 0.0000  plane waves:     840
 k-point    20 :  -0.0000 0.0833 0.3333  plane waves:     840
 k-point    21 :  -0.0000-0.3333 0.0833  plane waves:     840
 k-point    22 :   0.4167 0.0833 0.0000  plane waves:     826
 k-point    23 :  -0.0833 0.4167 0.0000  plane waves:     826
 k-point    24 :   0.0000 0.0833 0.4167  plane waves:     826
 k-point    25 :  -0.0000-0.4167 0.0833  plane waves:     826
 k-point    26 :   0.5000 0.0833 0.0000  plane waves:     828
 k-point    27 :  -0.0833 0.5000 0.0000  plane waves:     828
 k-point    28 :   0.1667 0.1667 0.0000  plane waves:     826
 k-point    29 :  -0.1667 0.1667 0.0000  plane waves:     826
 k-point    30 :   0.2500 0.1667 0.0000  plane waves:     828
 k-point    31 :  -0.1667 0.2500 0.0000  plane waves:     828
 k-point    32 :   0.0000 0.1667 0.2500  plane waves:     828
 k-point    33 :  -0.0000-0.2500 0.1667  plane waves:     828
 k-point    34 :   0.3333 0.1667 0.0000  plane waves:     832
 k-point    35 :  -0.1667 0.3333 0.0000  plane waves:     832
 k-point    36 :  -0.0000 0.1667 0.3333  plane waves:     832
 k-point    37 :  -0.0000-0.3333 0.1667  plane waves:     832
 k-point    38 :   0.4167 0.1667 0.0000  plane waves:     822
 k-point    39 :  -0.1667 0.4167 0.0000  plane waves:     822
 k-point    40 :   0.0000 0.1667 0.4167  plane waves:     822
 k-point    41 :  -0.0000-0.4167 0.1667  plane waves:     822
 k-point    42 :   0.5000 0.1667 0.0000  plane waves:     840
 k-point    43 :  -0.1667 0.5000 0.0000  plane waves:     840
 k-point    44 :   0.2500 0.2500 0.0000  plane waves:     830
 k-point    45 :  -0.2500 0.2500 0.0000  plane waves:     830
 k-point    46 :   0.3333 0.2500 0.0000  plane waves:     818
 k-point    47 :  -0.2500 0.3333 0.0000  plane waves:     818
 k-point    48 :  -0.0000 0.2500 0.3333  plane waves:     818
 k-point    49 :   0.0000-0.3333 0.2500  plane waves:     818
 k-point    50 :   0.4167 0.2500 0.0000  plane waves:     824
 k-point    51 :  -0.2500 0.4167 0.0000  plane waves:     824
 k-point    52 :   0.0000 0.2500 0.4167  plane waves:     824
 k-point    53 :   0.0000-0.4167 0.2500  plane waves:     824
 k-point    54 :   0.5000 0.2500 0.0000  plane waves:     848
 k-point    55 :  -0.2500 0.5000 0.0000  plane waves:     848
 k-point    56 :   0.3333 0.3333 0.0000  plane waves:     804
 k-point    57 :  -0.3333 0.3333 0.0000  plane waves:     804
 k-point    58 :   0.4167 0.3333 0.0000  plane waves:     824
 k-point    59 :  -0.3333 0.4167 0.0000  plane waves:     824
 k-point    60 :   0.0000 0.3333 0.4167  plane waves:     824
[...]
 k-point   280 :   0.4167 0.4167 0.3333  plane waves:     824
 k-point   281 :  -0.4167 0.4167 0.3333  plane waves:     824
 k-point   282 :  -0.4167 0.3333 0.4167  plane waves:     824
 k-point   283 :  -0.3333 0.4167 0.4167  plane waves:     824
 k-point   284 :   0.5000 0.4167 0.3333  plane waves:     820
 k-point   285 :  -0.4167 0.5000 0.3333  plane waves:     820
 k-point   286 :   0.5000 0.3333 0.4167  plane waves:     820
 k-point   287 :   0.5000-0.4167 0.3333  plane waves:     820
 k-point   288 :   0.5000 0.5000 0.3333  plane waves:     840
 k-point   289 :   0.4167 0.4167 0.4167  plane waves:     816
 k-point   290 :  -0.4167 0.4167 0.4167  plane waves:     816
 k-point   291 :   0.5000 0.4167 0.4167  plane waves:     824
 k-point   292 :  -0.4167 0.5000 0.4167  plane waves:     824
 k-point   293 :   0.5000 0.5000 0.4167  plane waves:     840
 k-point   294 :   0.5000 0.5000 0.5000  plane waves:     864

 maximum and minimum number of plane-waves per node :       874      776

 maximum number of plane-waves:       874
 maximum index in each direction:
   IXMAX=    5   IYMAX=    5   IZMAX=    4
   IXMIN=   -5   IYMIN=   -5   IZMIN=   -5

 serial   3D FFT for wavefunctions
 parallel 3D FFT for charge:
    minimum data exchange during FFTs selected (reduces bandwidth)

 Broyden mixing: mesh for mixing (old mesh)
   NGX =  9   NGY =  9   NGZ =  9
  (NGX  = 28   NGY  = 28   NGZ  = 28)
  gives a total of    729 points

 charge density for first step will be calculated from the start-wavefunctions

 Maximum index for augmentation-charges          305 (set IRDMAX)

 initial charge from wavefunction
 First call to EWALD:  gamma=   0.534
 Maximum number of real-space cells 3x 3x 3
 Maximum number of reciprocal cells 3x 3x 3

--------------------------------------- Ionic step        1  -------------------------------------------

--------------------------------------- Iteration      1(   1)  ---------------------------------------

 eigenvalue-minimisations  : 16368
 total energy-change (2. order) :-0.2503256E+02  (-0.9497287E-06)
 number of electron      21.9999949 magnetization      -0.0001596     -0.0001596     -0.0001596
 augmentation part        6.7141405 magnetization       0.0000108      0.0000108      0.0000108

 Broyden mixing:
  rms(total) = 0.72053E-03    rms(broyden)= 0.72050E-03
  rms(prec ) = 0.99799E-03
  weight for this iteration     100.00

 Free energy of the ion-electron system (eV)
  alpha Z        PSCENC =       250.20582312
  Ewald energy   TEWEN  =     -1908.93993040
  -Hartree energ DENC   =      -225.30583694
  -exchange      EXHF   =         0.00000000
  -V(xc)+E(xc)   XCENC  =        45.50144748
  PAW double counting   =      3316.95496174    -3289.69490456
  entropy T*S    EENTRO =        -0.00385843
  eigenvalues    EBANDS =      -308.10526321
  atomic energy  EATOM  =      2094.35499789
  Solvation  Ediel_sol  =         0.00000000
  free energy    TOTEN  =       -25.03256331 eV

  energy without entropy =      -25.02870488  energy(sigma->0) =      -25.03063410

--------------------------------------- Iteration      1(   2)  ---------------------------------------

 eigenvalue-minimisations  : 14592
 total energy-change (2. order) : 0.1415078E-06  (-0.5315230E-07)
 number of electron      21.9999949 magnetization      -0.0001596     -0.0001596     -0.0001596
 augmentation part        6.7141405 magnetization       0.0000108      0.0000108      0.0000108

 Free energy of the ion-electron system (eV)
  alpha Z        PSCENC =       250.20582312
  Ewald energy   TEWEN  =     -1908.93993040
  -Hartree energ DENC   =      -225.31427628
  -exchange      EXHF   =         0.00000000
  -V(xc)+E(xc)   XCENC  =        45.50184756
  PAW double counting   =      3316.59495143    -3289.33436585
  entropy T*S    EENTRO =        -0.00385917
  eigenvalues    EBANDS =      -308.09775148
  atomic energy  EATOM  =      2094.35499789
  Solvation  Ediel_sol  =         0.00000000
  free energy    TOTEN  =       -25.03256317 eV

  energy without entropy =      -25.02870401  energy(sigma->0) =      -25.03063359

 average (electrostatic) potential at core
  the test charge radii are     1.1760
  (the norm of the test charge is              1.0000)
       1 -36.6637       2 -36.6637

 E-fermi :   5.3258     XC(G=0): -12.5305     alpha+bet :-13.0714

 val. band max:        5.3222705948   @ k =  -0.4167   0.0833   0.3333
 cond. band min:       5.3284651168   @ k =  -0.2500   0.1667   0.1667
 fundamental gap:      0.0061945220
 Fermi energy:         5.3257954143

 k-point     1 :       0.0000    0.0000    0.0000
  band No.  band energies     occupation
      1     -33.7610      1.00000
      2     -33.7610      1.00000
      3     -33.2635      1.00000
      4     -33.2635      1.00000
      5     -26.1741      1.00000
      6     -26.1741      1.00000
      7     -26.1741      1.00000
      8     -26.1740      1.00000
      9     -25.2193      1.00000
     10     -25.2193      1.00000
     11     -25.2193      1.00000
     12     -25.2192      1.00000
     13      -2.5029      1.00000
     14      -2.5028      1.00000
     15       1.6379      1.00000
     16       1.6379      1.00000
     17       1.6380      1.00000
     18       1.6380      1.00000
     19       5.9205      0.00000
     20       5.9205      0.00000
     21       5.9205      0.00000
     22       5.9206      0.00000
     23       6.3346      0.00000
     24       6.3346      0.00000
     25       9.3174      0.00000
     26       9.3174      0.00000
     27       9.3175      0.00000
     28       9.3175      0.00000
     29      11.8326      0.00000
     30      11.8326      0.00000
     31      11.8326      0.00000
     32      11.8327      0.00000
     33      12.4373      0.00000
     34      12.4373      0.00000
     35      12.5751      0.00000
     36      12.5751      0.00000
     37      14.5659      0.00000
     38      14.5659      0.00000
     39      14.5660      0.00000
     40      14.5660      0.00000
     41      19.8746      0.00000
     42      19.8747      0.00000
     43      19.9374      0.00000
     44      19.9374      0.00000
     45      20.2830      0.00000
     46      20.2831      0.00000
     47      20.2831      0.00000
     48      20.2831      0.00000

[...]

 k-point   294 :       0.5000    0.5000    0.5000
  band No.  band energies     occupation
      1     -33.6069      1.00000
      2     -33.6069      1.00000
      3     -33.6069      1.00000
      4     -33.6069      1.00000
      5     -25.9228      1.00000
      6     -25.9228      1.00000
      7     -25.9228      1.00000
      8     -25.9228      1.00000
      9     -25.9228      1.00000
     10     -25.9228      1.00000
     11     -25.9228      1.00000
     12     -25.9228      1.00000
     13       3.7608      1.00000
     14       3.7608      1.00000
     15       3.7608      1.00000
     16       3.7608      1.00000
     17       4.3245      1.00000
     18       4.3245      1.00000
     19       4.3245      1.00000
     20       4.3245      1.00000
     21       4.3246      1.00000
     22       4.3246      1.00000
     23       4.3246      1.00000
     24       4.3246      1.00000
     25      10.3229      0.00000
     26      10.3229      0.00000
     27      10.3229      0.00000
     28      10.3229      0.00000
     29      10.3230      0.00000
     30      10.3230      0.00000
     31      10.3230      0.00000
     32      10.3230      0.00000
     33      12.2699      0.00000
     34      12.2699      0.00000
     35      12.2700      0.00000
     36      12.2700      0.00000
     37      17.7982      0.00000
     38      17.7982      0.00000
     39      17.7982      0.00000
     40      17.7982      0.00000
     41      18.1451      0.00000
     42      18.1451      0.00000
     43      18.1452      0.00000
     44      18.1452      0.00000
     45      18.1452      0.00000
     46      18.1452      0.00000
     47      18.1452      0.00000
     48      18.1452      0.00000

 soft charge-density along one line, spin component           1
         0         1         2         3         4         5         6         7         8         9
 total charge-density along one line

[...]

 soft charge-density along one line, spin component           4
         0         1         2         3         4         5         6         7         8         9
 total charge-density along one line

------------------------ aborting loop because EDIFF is reached ----------------------------------------

  FORCE on cell =-STRESS in cart. coord.  units (eV):
  Direction    XX          YY          ZZ          XY          YZ          ZX
  Alpha Z   250.20582   250.20582   250.20582
  Ewald    -636.31326  -636.31326  -636.31326     0.00000     0.00000     0.00000
  Hartree    75.10821    75.10821    75.10821    -0.00001    -0.00001    -0.00001
  E(xc)     -93.76564   -93.76564   -93.76564     0.00000     0.00000     0.00000
  Local     199.53721   199.53721   199.53721     0.00002     0.00002     0.00002
  n-local  -100.57878   -99.96129   -97.87429     0.14180     0.04258    -0.18438
  augment    43.30116    43.30116    43.30116     0.00000     0.00000     0.00000
  Kinetic   257.28629   259.52140   266.34896     0.29283    -0.64930     0.35646
  Fock        0.00000     0.00000     0.00000     0.00000     0.00000     0.00000
  Total      -0.34573    -0.34573    -0.34573     0.00002     0.00002     0.00002
  in kB     -15.11388   -15.11388   -15.11388     0.00067     0.00067     0.00067

 VOLUME and BASIS-vectors are now :
  energy-cutoff  :      290.77
  volume of cell :       36.65
      direct lattice vectors                 reciprocal lattice vectors
     3.321690000  0.000000000  0.000000000     0.301051573 -0.000000000  0.000000000
     0.000000000  3.321690000  0.000000000     0.000000000  0.301051573  0.000000000
     0.000000000  0.000000000  3.321690000    -0.000000000 -0.000000000  0.301051573

  length of vectors
     3.321690000  3.321690000  3.321690000     0.301051573  0.301051573  0.301051573

 FORCES acting on ions
    electron-ion (+dipol)            ewald-force                    non-local-force                 convergence-correction
   -.184E-13 -.185E-13 -.162E-13   0.617E-14 -.324E-14 -.555E-14   0.292E-22 -.899E-23 0.100E-21   -.166E-14 -.101E-13 -.664E-14
   0.952E-13 0.899E-13 0.921E-13   -.382E-14 0.678E-14 0.395E-14   -.683E-23 -.375E-22 -.253E-22   -.196E-13 0.456E-14 -.111E-13
   0.768E-13 0.714E-13 0.760E-13   0.235E-14 0.354E-14 -.160E-14   0.224E-22 -.465E-22 0.748E-22   -.213E-13 -.555E-14 -.178E-13

 POSITION                                       TOTAL-FORCE (eV/Angst)
      0.00000      0.00000      0.00000        -0.000000      0.000000     -0.000000
      1.66085      1.66084      1.66085         0.000000     -0.000000      0.000000
    total drift:                                0.000000      0.000000      0.000000

  FREE ENERGIE OF THE ION-ELECTRON SYSTEM (eV)
  free  energy   TOTEN  =       -25.03256317 eV

  energy  without entropy=      -25.02870401  energy(sigma->0) =      -25.03063359

 writing wavefunctions

 Spin-Orbit-Coupling matrix elements

 Ion:    1  E_soc:     -1.4084164
 l=   1
     0.0000000    -0.2137704    -0.2137704
    -0.2137704     0.0000000    -0.2137704
    -0.2137704    -0.2137704     0.0000000
 l=   2
     0.0000000    -0.0052410     0.0000000    -0.0052410    -0.0157246
    -0.0052410     0.0000000    -0.0117935    -0.0052410    -0.0039312
     0.0000000    -0.0117935     0.0000000    -0.0117935     0.0000000
    -0.0052410    -0.0052410    -0.0117935     0.0000000    -0.0039312
    -0.0157246    -0.0039312     0.0000000    -0.0039312     0.0000000
 l=   3
     0.0000000     0.0000000     0.0000000     0.0000000     0.0000000     0.0000000     0.0000000
     0.0000000     0.0000000     0.0000000     0.0000000     0.0000000     0.0000000     0.0000000
     0.0000000     0.0000000     0.0000000     0.0000000     0.0000000     0.0000000     0.0000000
     0.0000000     0.0000000     0.0000000     0.0000000     0.0000000     0.0000000     0.0000000
     0.0000000     0.0000000     0.0000000     0.0000000     0.0000000     0.0000000     0.0000000
     0.0000000     0.0000000     0.0000000     0.0000000     0.0000000     0.0000000     0.0000000
     0.0000000     0.0000000     0.0000000     0.0000000     0.0000000     0.0000000     0.0000000

 Ion:    2  E_soc:     -1.4084164
 l=   1
     0.0000000    -0.2137704    -0.2137704
    -0.2137704     0.0000000    -0.2137704
    -0.2137704    -0.2137704     0.0000000
 l=   2
     0.0000000    -0.0052410     0.0000000    -0.0052410    -0.0157246
    -0.0052410     0.0000000    -0.0117935    -0.0052410    -0.0039312
     0.0000000    -0.0117935     0.0000000    -0.0117935     0.0000000
    -0.0052410    -0.0052410    -0.0117935     0.0000000    -0.0039312
    -0.0157246    -0.0039312     0.0000000    -0.0039312     0.0000000
 l=   3
     0.0000000     0.0000000     0.0000000     0.0000000     0.0000000     0.0000000     0.0000000
     0.0000000     0.0000000     0.0000000     0.0000000     0.0000000     0.0000000     0.0000000
     0.0000000     0.0000000     0.0000000     0.0000000     0.0000000     0.0000000     0.0000000
     0.0000000     0.0000000     0.0000000     0.0000000     0.0000000     0.0000000     0.0000000
     0.0000000     0.0000000     0.0000000     0.0000000     0.0000000     0.0000000     0.0000000
     0.0000000     0.0000000     0.0000000     0.0000000     0.0000000     0.0000000     0.0000000
     0.0000000     0.0000000     0.0000000     0.0000000     0.0000000     0.0000000     0.0000000