 vasp.6.4.3 19Mar24 (build Jun 26 2024 13:02:28) complex

 executed on             LinuxIFC date 2025.08.08  18:16:04

 INCAR:
   ENCUT = 381.20550000000003
   IBRION = -1
   ISMEAR = 0
   ISYM = 2
   LCHARG = True
   LWAVE = True
   SIGMA = 0.05
   SYSTEM = Nb

 POTCAR:  PAW_PBE Nb_sv 25May2007
|           W    W    AA    RRRRR   N    N  II  N    N   GGGG   !!!           |
|           W    W   A  A   R    R  NN   N  II  NN   N  G    G  !!!           |
|           W    W  A    A  R    R  N N  N  II  N N  N  G       !!!           |
|           W WW W  AAAAAA  RRRRR   N  N N  II  N  N N  G  GGG   !            |
|           WW  WW  A    A  R   R   N   NN  II  N   NN  G    G                |
|           W    W  A    A  R    R  N    N  II  N    N   GGGG   !!!           |
|     For optimal performance we recommend to set                             |
|       NCORE = 2 up to number-of-cores-per-socket                            |
|     This setting can greatly improve the performance of VASP for DFT.       |
|     The default, NCORE=1 might be grossly inefficient on modern             |
|     multi-core architectures or massively parallel machines. Do your        |
|     Unfortunately you need to use the default for GW and RPA                |
|     calculations (for HF NCORE is supported but not extensively tested      |
|     yet).                                                                   |

 POTCAR:  PAW_PBE Nb_sv 25May2007
   VRHFIN =Nb: 4p5s4d

   TITEL  = PAW_PBE Nb_sv 25May2007
   POMASS =   92.910; ZVAL   =   13.000    mass and valenz
   ENMAX  =  293.235; ENMIN  =  219.927 eV

PAW_PBE Nb_sv 25May2007                 :

 POSCAR: Nb2
  positions in direct lattice

 exchange-correlation table for PE
   RHO(1)=    0.500       N(1)  =     2000
   RHO(2)=  100.500       N(2)  =     4000

 ion  position               nearest neighbor table
   1  0.000  0.000  0.000-   2 2.88   2 2.88   2 2.88   2 2.88   2 2.88   2 2.88   2 2.88   2 2.88

   2  0.500  0.500  0.500-   1 2.88   1 2.88   1 2.88   1 2.88   1 2.88   1 2.88   1 2.88   1 2.88

  LATTYP: Found a simple cubic cell.
 ALAT       =     3.3223900000

  Lattice vectors:

 A1 = (   3.3223900000,   0.0000000000,   0.0000000000)
 A2 = (   0.0000000000,   3.3223900000,   0.0000000000)
 A3 = (   0.0000000000,   0.0000000000,   3.3223900000)

Analysis of symmetry for initial positions (statically):
 Subroutine PRICEL returns following result:

  LATTYP: Found a body centered cubic cell.
 ALAT       =     3.3223900000

[...]

   2 primitive cells build up your supercell.

 Routine SETGRP: Setting up the symmetry group for a
 simple cubic supercell.

 Subroutine GETGRP returns: Found 48 space group operations
 (whereof 48 operations were pure point group operations)
 out of a pool of 48 trial point group operations.

The static configuration has the point symmetry O_h .

Analysis of symmetry for dynamics (positions and initial velocities):
 Subroutine PRICEL returns following result:

  LATTYP: Found a body centered cubic cell.
 ALAT       =     3.3223900000

  Lattice vectors:

 A1 = (   1.6611950000,   1.6611950000,  -1.6611950000)
 A2 = (  -1.6611950000,   1.6611950000,   1.6611950000)
 A3 = (   1.6611950000,  -1.6611950000,   1.6611950000)

   2 primitive cells build up your supercell.

 Routine SETGRP: Setting up the symmetry group for a
 simple cubic supercell.

 Subroutine GETGRP returns: Found 48 space group operations
 (whereof 48 operations were pure point group operations)
 out of a pool of 48 trial point group operations.

The dynamic configuration has the point symmetry O_h .

 Subroutine INISYM returns: Found 48 space group operations
 (whereof 48 operations are pure point group operations),
 and found     2 'primitive' translations

                                     Primitive cell

  volume of cell :      18.3367

  direct lattice vectors                    reciprocal lattice vectors
     1.661195000  1.661195000 -1.661195000     0.300988144  0.300988144  0.000000000
    -1.661195000  1.661195000  1.661195000    -0.000000000  0.300988144  0.300988144
     1.661195000 -1.661195000  1.661195000     0.300988144 -0.000000000  0.300988144

  length of vectors
     2.877274141  2.877274141  2.877274141     0.425661515  0.425661515  0.425661515

  position of ions in fractional coordinates (direct lattice)
     0.000000000  0.000000000  0.000000000

  ion indices of the primitive-cell ions
   primitive index   ion index
                 1           1

 KPOINTS: Automatic kpoint scheme

Automatic generation of k-mesh.
 Grid dimensions read from file:
 generate k-points for:    8    8    8

 Generating k-lattice:

  Cartesian coordinates                     Fractional coordinates (reciprocal lattice)
     0.037623518 -0.000000000  0.000000000     0.125000000  0.000000000  0.000000000
     0.000000000  0.037623518  0.000000000     0.000000000  0.125000000  0.000000000
    -0.000000000 -0.000000000  0.037623518    -0.000000000 -0.000000000  0.125000000

  Length of vectors
     0.037623518  0.037623518  0.037623518

  Shift w.r.t. Gamma in fractional coordinates (k-lattice)
     0.000000000  0.000000000  0.000000000

 Subroutine IBZKPT returns following result:

 Found     35 irreducible k-points:

 Following reciprocal coordinates:
            Coordinates               Weight
  0.000000  0.000000  0.000000      1.000000
  0.125000  0.000000  0.000000      6.000000
  0.250000  0.000000  0.000000      6.000000
  0.375000  0.000000  0.000000      6.000000
  0.500000  0.000000  0.000000      3.000000
  0.125000  0.125000  0.000000     12.000000
  0.250000  0.125000  0.000000     24.000000
  0.375000  0.125000  0.000000     24.000000
  0.500000  0.125000  0.000000     12.000000
  0.250000  0.250000  0.000000     12.000000
  0.375000  0.250000  0.000000     24.000000
  0.500000  0.250000  0.000000     12.000000
  0.375000  0.375000  0.000000     12.000000
  0.500000  0.375000  0.000000     12.000000
  0.500000  0.500000  0.000000      3.000000
  0.125000  0.125000  0.125000      8.000000
  0.250000  0.125000  0.125000     24.000000
  0.375000  0.125000  0.125000     24.000000
  0.500000  0.125000  0.125000     12.000000
  0.250000  0.250000  0.125000     24.000000
  0.375000  0.250000  0.125000     48.000000
  0.500000  0.250000  0.125000     24.000000
  0.375000  0.375000  0.125000     24.000000
  0.500000  0.375000  0.125000     24.000000
  0.500000  0.500000  0.125000      6.000000
  0.250000  0.250000  0.250000      8.000000
  0.375000  0.250000  0.250000     24.000000
  0.500000  0.250000  0.250000     12.000000
  0.375000  0.375000  0.250000     24.000000
  0.500000  0.375000  0.250000     24.000000
  0.500000  0.500000  0.250000      6.000000
  0.375000  0.375000  0.375000      8.000000
  0.500000  0.375000  0.375000     12.000000
  0.500000  0.500000  0.375000      6.000000
  0.500000  0.500000  0.500000      1.000000

 Following cartesian coordinates:
            Coordinates               Weight
  0.000000  0.000000  0.000000      1.000000
  0.037624 -0.000000  0.000000      6.000000
  0.075247 -0.000000  0.000000      6.000000
  0.112871 -0.000000  0.000000      6.000000
  0.150494 -0.000000  0.000000      3.000000
  0.037624  0.037624  0.000000     12.000000
  0.075247  0.037624  0.000000     24.000000
  0.112871  0.037624  0.000000     24.000000
  0.150494  0.037624  0.000000     12.000000
  0.075247  0.075247  0.000000     12.000000
  0.112871  0.075247  0.000000     24.000000
  0.150494  0.075247  0.000000     12.000000
  0.112871  0.112871  0.000000     12.000000
  0.150494  0.112871  0.000000     12.000000
  0.150494  0.150494  0.000000      3.000000
  0.037624  0.037624  0.037624      8.000000
  0.075247  0.037624  0.037624     24.000000
  0.112871  0.037624  0.037624     24.000000
  0.150494  0.037624  0.037624     12.000000
  0.075247  0.075247  0.037624     24.000000
  0.112871  0.075247  0.037624     48.000000
  0.150494  0.075247  0.037624     24.000000
  0.112871  0.112871  0.037624     24.000000
  0.150494  0.112871  0.037624     24.000000
  0.150494  0.150494  0.037624      6.000000
  0.075247  0.075247  0.075247      8.000000
  0.112871  0.075247  0.075247     24.000000
  0.150494  0.075247  0.075247     12.000000
  0.112871  0.112871  0.075247     24.000000
  0.150494  0.112871  0.075247     24.000000
  0.150494  0.150494  0.075247      6.000000
  0.112871  0.112871  0.112871      8.000000
  0.150494  0.112871  0.112871     12.000000
  0.150494  0.150494  0.112871      6.000000
  0.150494  0.150494  0.150494      1.000000

 Subroutine IBZKPT_HF returns following result:

 Found    512 k-points in 1st BZ
 the following    512 k-points will be used (e.g. in the exchange kernel)
 Following reciprocal coordinates:   # in IRBZ
  0.000000  0.000000  0.000000    0.00195312   1 t-inv F
  0.125000  0.000000  0.000000    0.00195312   2 t-inv F
  0.250000  0.000000  0.000000    0.00195312   3 t-inv F
  0.375000  0.000000  0.000000    0.00195312   4 t-inv F
  0.500000  0.000000  0.000000    0.00195312   5 t-inv F
  0.125000  0.125000  0.000000    0.00195312   6 t-inv F
  0.250000  0.125000  0.000000    0.00195312   7 t-inv F
  0.375000  0.125000  0.000000    0.00195312   8 t-inv F
  0.500000  0.125000  0.000000    0.00195312   9 t-inv F
  0.250000  0.250000  0.000000    0.00195312  10 t-inv F
  0.375000  0.250000  0.000000    0.00195312  11 t-inv F
  0.500000  0.250000  0.000000    0.00195312  12 t-inv F
  0.375000  0.375000  0.000000    0.00195312  13 t-inv F
  0.500000  0.375000  0.000000    0.00195312  14 t-inv F
  0.500000  0.500000  0.000000    0.00195312  15 t-inv F
  0.125000  0.125000  0.125000    0.00195312  16 t-inv F
  0.250000  0.125000  0.125000    0.00195312  17 t-inv F
  0.375000  0.125000  0.125000    0.00195312  18 t-inv F
  0.500000  0.125000  0.125000    0.00195312  19 t-inv F
  0.250000  0.250000  0.125000    0.00195312  20 t-inv F
  0.375000  0.250000  0.125000    0.00195312  21 t-inv F
  0.500000  0.250000  0.125000    0.00195312  22 t-inv F
  0.375000  0.375000  0.125000    0.00195312  23 t-inv F
  0.500000  0.375000  0.125000    0.00195312  24 t-inv F
  0.500000  0.500000  0.125000    0.00195312  25 t-inv F
  0.250000  0.250000  0.250000    0.00195312  26 t-inv F
  0.375000  0.250000  0.250000    0.00195312  27 t-inv F
  0.500000  0.250000  0.250000    0.00195312  28 t-inv F
  0.375000  0.375000  0.250000    0.00195312  29 t-inv F
  0.500000  0.375000  0.250000    0.00195312  30 t-inv F
  0.500000  0.500000  0.250000    0.00195312  31 t-inv F
  0.375000  0.375000  0.375000    0.00195312  32 t-inv F
  0.500000  0.375000  0.375000    0.00195312  33 t-inv F
  0.500000  0.500000  0.375000    0.00195312  34 t-inv F
  0.500000  0.500000  0.500000    0.00195312  35 t-inv F
 -0.125000 -0.000000  0.000000    0.00195312   2 t-inv F
  0.000000  0.125000  0.000000    0.00195312   2 t-inv F
  0.000000 -0.125000 -0.000000    0.00195312   2 t-inv F
  0.000000  0.000000  0.125000    0.00195312   2 t-inv F
 -0.000000  0.000000 -0.125000    0.00195312   2 t-inv F
 -0.250000 -0.000000  0.000000    0.00195312   3 t-inv F
  0.000000  0.250000  0.000000    0.00195312   3 t-inv F
[...]
 Gauss-broadening in eV      SIGMA  =   0.05

  energy-cutoff  :      381.21
  volume of cell :       36.67
      direct lattice vectors                 reciprocal lattice vectors
     3.322390000  0.000000000  0.000000000     0.300988144 -0.000000000  0.000000000
     0.000000000  3.322390000  0.000000000     0.000000000  0.300988144  0.000000000
     0.000000000  0.000000000  3.322390000    -0.000000000 -0.000000000  0.300988144

[...]

 old parameters found on file WAVECAR:
  energy-cutoff  :      381.21
  volume of cell :       36.67
      direct lattice vectors                 reciprocal lattice vectors
     3.322390000  0.000000000  0.000000000     0.300988144 -0.000000000  0.000000000
     0.000000000  3.322390000  0.000000000     0.000000000  0.300988144  0.000000000
     0.000000000  0.000000000  3.322390000    -0.000000000 -0.000000000  0.300988144

  length of vectors

 k-points in units of 2pi/SCALE and weight: Automatic kpoint scheme
   0.00000000  0.00000000  0.00000000       0.002
   0.03762352 -0.00000000  0.00000000       0.012
   0.07524704 -0.00000000  0.00000000       0.012
   0.11287055 -0.00000000  0.00000000       0.012
   0.15049407 -0.00000000  0.00000000       0.006
   0.03762352  0.03762352  0.00000000       0.023
   0.07524704  0.03762352  0.00000000       0.047
   0.11287055  0.03762352  0.00000000       0.047
   0.15049407  0.03762352  0.00000000       0.023
   0.07524704  0.07524704  0.00000000       0.023
   0.11287055  0.07524704  0.00000000       0.047
   0.15049407  0.07524704  0.00000000       0.023
   0.11287055  0.11287055  0.00000000       0.023
   0.15049407  0.11287055  0.00000000       0.023
   0.15049407  0.15049407  0.00000000       0.006
   0.03762352  0.03762352  0.03762352       0.016
   0.07524704  0.03762352  0.03762352       0.047
   0.11287055  0.03762352  0.03762352       0.047
   0.15049407  0.03762352  0.03762352       0.023
   0.07524704  0.07524704  0.03762352       0.047
   0.11287055  0.07524704  0.03762352       0.094
   0.15049407  0.07524704  0.03762352       0.047
   0.11287055  0.11287055  0.03762352       0.047
   0.15049407  0.11287055  0.03762352       0.047
   0.15049407  0.15049407  0.03762352       0.012
   0.07524704  0.07524704  0.07524704       0.016
   0.11287055  0.07524704  0.07524704       0.047
   0.15049407  0.07524704  0.07524704       0.023
   0.11287055  0.11287055  0.07524704       0.047
   0.15049407  0.11287055  0.07524704       0.047
   0.15049407  0.15049407  0.07524704       0.012
   0.11287055  0.11287055  0.11287055       0.016
   0.15049407  0.11287055  0.11287055       0.023
   0.15049407  0.15049407  0.11287055       0.012
   0.15049407  0.15049407  0.15049407       0.002

 k-points in reciprocal lattice and weights: Automatic kpoint scheme
   0.00000000  0.00000000  0.00000000       0.002
   0.12500000  0.00000000  0.00000000       0.012
   0.25000000  0.00000000  0.00000000       0.012
   0.37500000  0.00000000  0.00000000       0.012
   0.50000000  0.00000000  0.00000000       0.006
   0.12500000  0.12500000  0.00000000       0.023
   0.25000000  0.12500000  0.00000000       0.047
   0.37500000  0.12500000  0.00000000       0.047
   0.50000000  0.12500000  0.00000000       0.023
   0.25000000  0.25000000  0.00000000       0.023
   0.37500000  0.25000000  0.00000000       0.047
   0.50000000  0.25000000  0.00000000       0.023
   0.37500000  0.37500000  0.00000000       0.023
   0.50000000  0.37500000  0.00000000       0.023
   0.50000000  0.50000000  0.00000000       0.006
   0.12500000  0.12500000  0.12500000       0.016
   0.25000000  0.12500000  0.12500000       0.047
   0.37500000  0.12500000  0.12500000       0.047
   0.50000000  0.12500000  0.12500000       0.023
   0.25000000  0.25000000  0.12500000       0.047
   0.37500000  0.25000000  0.12500000       0.094
   0.50000000  0.25000000  0.12500000       0.047
   0.37500000  0.37500000  0.12500000       0.047
   0.50000000  0.37500000  0.12500000       0.047
   0.50000000  0.50000000  0.12500000       0.012
   0.25000000  0.25000000  0.25000000       0.016
   0.37500000  0.25000000  0.25000000       0.047
   0.50000000  0.25000000  0.25000000       0.023
   0.37500000  0.37500000  0.25000000       0.047
   0.50000000  0.37500000  0.25000000       0.047
   0.50000000  0.50000000  0.25000000       0.012
   0.37500000  0.37500000  0.37500000       0.016
   0.50000000  0.37500000  0.37500000       0.023
   0.50000000  0.50000000  0.37500000       0.012
   0.50000000  0.50000000  0.50000000       0.002

 position of ions in fractional coordinates (direct lattice)
   0.00000000  0.00000000  0.00000000
   0.50000000  0.50000000  0.50000000

 position of ions in cartesian coordinates  (Angst):
   0.00000000  0.00000000  0.00000000
   1.66119500  1.66119500  1.66119500

 k-point     1 :   0.0000 0.0000 0.0000  plane waves:     619
 k-point     2 :   0.1250 0.0000 0.0000  plane waves:     619
 k-point     3 :   0.2500 0.0000 0.0000  plane waves:     627
 k-point     4 :   0.3750 0.0000 0.0000  plane waves:     626
 k-point     5 :   0.5000 0.0000 0.0000  plane waves:     610
 k-point     6 :   0.1250 0.1250 0.0000  plane waves:     627
 k-point     7 :   0.2500 0.1250 0.0000  plane waves:     632
 k-point     8 :   0.3750 0.1250 0.0000  plane waves:     622
 k-point     9 :   0.5000 0.1250 0.0000  plane waves:     610
 k-point    10 :   0.2500 0.2500 0.0000  plane waves:     613
 k-point    11 :   0.3750 0.2500 0.0000  plane waves:     619
 k-point    12 :   0.5000 0.2500 0.0000  plane waves:     616
 k-point    13 :   0.3750 0.3750 0.0000  plane waves:     614
 k-point    14 :   0.5000 0.3750 0.0000  plane waves:     620
 k-point    15 :   0.5000 0.5000 0.0000  plane waves:     624
 k-point    16 :   0.1250 0.1250 0.1250  plane waves:     621
 k-point    17 :   0.2500 0.1250 0.1250  plane waves:     624
 k-point    18 :   0.3750 0.1250 0.1250  plane waves:     624
 k-point    19 :   0.5000 0.1250 0.1250  plane waves:     620
 k-point    20 :   0.2500 0.2500 0.1250  plane waves:     622
 k-point    21 :   0.3750 0.2500 0.1250  plane waves:     622
 k-point    22 :   0.5000 0.2500 0.1250  plane waves:     618
 k-point    23 :   0.3750 0.3750 0.1250  plane waves:     612
 k-point    24 :   0.5000 0.3750 0.1250  plane waves:     618
 k-point    25 :   0.5000 0.5000 0.1250  plane waves:     620
 k-point    26 :   0.2500 0.2500 0.2500  plane waves:     612
 k-point    27 :   0.3750 0.2500 0.2500  plane waves:     612
 k-point    28 :   0.5000 0.2500 0.2500  plane waves:     630
 k-point    29 :   0.3750 0.3750 0.2500  plane waves:     623
 k-point    30 :   0.5000 0.3750 0.2500  plane waves:     622
 k-point    31 :   0.5000 0.5000 0.2500  plane waves:     616
 k-point    32 :   0.3750 0.3750 0.3750  plane waves:     624
 k-point    33 :   0.5000 0.3750 0.3750  plane waves:     622
 k-point    34 :   0.5000 0.5000 0.3750  plane waves:     632
 k-point    35 :   0.5000 0.5000 0.5000  plane waves:     624

 maximum and minimum number of plane-waves per node :       632      610

 maximum number of plane-waves:       632
 maximum index in each direction:
   IXMAX=    5   IYMAX=    5   IZMAX=    5
   IXMIN=   -5   IYMIN=   -5   IZMIN=   -5

 serial   3D FFT for wavefunctions
 parallel 3D FFT for charge:
    minimum data exchange during FFTs selected (reduces bandwidth)

 Broyden mixing: mesh for mixing (old mesh)
   NGX = 11   NGY = 11   NGZ = 11
  (NGX  = 32   NGY  = 32   NGZ  = 32)
  gives a total of   1331 points

 charge density for first step will be calculated from the start-wavefunctions

 Maximum index for augmentation-charges          341 (set IRDMAX)

 initial charge from wavefunction
 First call to EWALD:  gamma=   0.533
 Maximum number of real-space cells 3x 3x 3
 Maximum number of reciprocal cells 3x 3x 3

--------------------------------------- Ionic step        1  -------------------------------------------

--------------------------------------- Iteration      1(   1)  ---------------------------------------

 eigenvalue-minimisations  :  2304
 total energy-change (2. order) :-0.2042901E+02  (-0.2949335E-05)
 number of electron      26.0000032 magnetization
 augmentation part        2.4440127 magnetization

 Broyden mixing:
  rms(total) = 0.15709E-02    rms(broyden)= 0.15708E-02
  rms(prec ) = 0.18927E-02
  weight for this iteration     100.00

 Free energy of the ion-electron system (eV)
  alpha Z        PSCENC =       162.57549218
  Ewald energy   TEWEN  =     -2665.64360999
  -Hartree energ DENC   =      -471.02219129
  -exchange      EXHF   =         0.00000000
  -V(xc)+E(xc)   XCENC  =       112.09777950
  PAW double counting   =      2976.75941859    -2932.63263777
  entropy T*S    EENTRO =        -0.00254440
  eigenvalues    EBANDS =      -312.88999975
  atomic energy  EATOM  =      3110.32928613
  Solvation  Ediel_sol  =         0.00000000
  free energy    TOTEN  =       -20.42900680 eV

  energy without entropy =      -20.42646240  energy(sigma->0) =      -20.42773460

--------------------------------------- Iteration      1(   2)  ---------------------------------------

 eigenvalue-minimisations  :  1968
 total energy-change (2. order) :-0.2793399E-06  (-0.1441603E-06)
 number of electron      26.0000032 magnetization
 augmentation part        2.4440127 magnetization

 Free energy of the ion-electron system (eV)
  alpha Z        PSCENC =       162.57549218
  Ewald energy   TEWEN  =     -2665.64360999
  -Hartree energ DENC   =      -471.03897397
  -exchange      EXHF   =         0.00000000
  -V(xc)+E(xc)   XCENC  =       112.09863411
  PAW double counting   =      2976.13297738    -2932.00363128
  entropy T*S    EENTRO =        -0.00254293
  eigenvalues    EBANDS =      -312.87663871
  atomic energy  EATOM  =      3110.32928613
  Solvation  Ediel_sol  =         0.00000000
  free energy    TOTEN  =       -20.42900708 eV

  energy without entropy =      -20.42646415  energy(sigma->0) =      -20.42773562

 average (electrostatic) potential at core
  the test charge radii are     1.0703
  (the norm of the test charge is              1.0000)
       1 -77.0548       2 -77.0548

 E-fermi :  10.9451     XC(G=0): -12.4056     alpha+bet :-18.9171

 val. band max:       10.9361664491   @ k =   0.3750   0.2500   0.0000
 cond. band min:      10.9536096336   @ k =   0.1250   0.1250   0.0000
 fundamental gap:      0.0174431844
 Fermi energy:        10.9450971200

 k-point     1 :       0.0000    0.0000    0.0000
  band No.  band energies     occupation
      1     -43.4388      2.00000
      2     -43.0494      2.00000
      3     -19.6605      2.00000
      4     -19.6605      2.00000
      5     -19.6605      2.00000
      6     -18.7812      2.00000
      7     -18.7812      2.00000
      8     -18.7812      2.00000
      9       5.0491      2.00000
     10       7.3186      2.00000
     11       7.3186      2.00000
     12      11.3139      0.00000
     13      11.3139      0.00000
     14      11.3139      0.00000
     15      14.1614      0.00000
     16      14.1614      0.00000
     17      16.4291      0.00000
     18      16.4291      0.00000
     19      16.4291      0.00000
     20      19.8610      0.00000
     21      19.8610      0.00000
     22      19.8610      0.00000
     23      25.1046      0.00000
     24      25.1046      0.00000
     25      25.1046      0.00000
     26      29.0761      0.00000
     27      31.2181      0.00000
     28      31.2181      0.00000
     29      32.9136      0.00000
     30      35.6906      0.00000
     31      35.6906      0.00000
     32      38.5969      0.00000
     33      38.5969      0.00000
     34      38.5969      0.00000
     35      44.5060      0.00000
     36      44.5060      0.00000
     37      44.5060      0.00000
     38      44.8289      0.00000
     39      44.8289      0.00000
     40      44.8289      0.00000
     41      47.4127      0.00000
     42      49.8901      0.00000
     43      49.8901      0.00000
     44      49.8901      0.00000
     45      51.8738      0.00000
     46      51.8738      0.00000
     47      51.8738      0.00000
     48      53.3752      0.00000

[...]

 k-point    35 :       0.5000    0.5000    0.5000
  band No.  band energies     occupation
      1     -43.1921      2.00000
      2     -43.1921      2.00000
      3     -19.4316      2.00000
      4     -19.4316      2.00000
      5     -19.4316      2.00000
      6     -19.4316      2.00000
      7     -19.4316      2.00000
      8     -19.4316      2.00000
      9       9.8574      2.00000
     10       9.8574      2.00000
     11       9.8574      2.00000
     12       9.8574      2.00000
     13       9.8574      2.00000
     14       9.8574      2.00000
     15      14.9797      0.00000
     16      14.9797      0.00000
     17      14.9797      0.00000
     18      14.9797      0.00000
     19      20.1937      0.00000
     20      20.1937      0.00000
     21      22.6670      0.00000
     22      22.6670      0.00000
     23      22.6670      0.00000
     24      22.6670      0.00000
     25      22.6670      0.00000
     26      22.6670      0.00000
     27      34.9542      0.00000
     28      34.9542      0.00000
     29      34.9542      0.00000
     30      34.9542      0.00000
     31      34.9542      0.00000
     32      34.9542      0.00000
     33      37.3201      0.00000
     34      37.3201      0.00000
     35      37.3201      0.00000
     36      37.3201      0.00000
     37      37.3201      0.00000
     38      37.3201      0.00000
     39      47.9115      0.00000
     40      47.9115      0.00000
     41      51.8303      0.00000
     42      51.8303      0.00000
     43      51.8303      0.00000
     44      51.8303      0.00000
     45      54.1346      0.00000
     46      54.1346      0.00000
     47      54.1346      0.00000
     48      54.1346      0.00000

 soft charge-density along one line, spin component           1
         0         1         2         3         4         5         6         7         8         9
 total charge-density along one line

------------------------ aborting loop because EDIFF is reached ----------------------------------------

  FORCE on cell =-STRESS in cart. coord.  units (eV):
  Direction    XX          YY          ZZ          XY          YZ          ZX
  Alpha Z   162.57549   162.57549   162.57549
  Ewald    -888.54780  -888.54780  -888.54780    -0.00000    -0.00000    -0.00000
  Hartree   157.01791   157.01791   157.01791    -0.00000    -0.00000    -0.00000
  E(xc)    -118.39286  -118.39286  -118.39286     0.00000    -0.00000     0.00000
  Local     168.08037   168.08037   168.08037     0.00000    -0.00000    -0.00000
  n-local    -5.14657   -27.33231   -41.06339     1.08980    -0.79859    -0.44412
  augment    36.72761    36.72761    36.72761     0.00000    -0.00000     0.00000
  Kinetic   470.83602   504.84101   543.24844     2.26925    -1.77102     1.36924
  Fock        0.00000     0.00000     0.00000     0.00000     0.00000     0.00000
  Total      -0.74487    -0.74487    -0.74487    -0.00000    -0.00000    -0.00000
  in kB     -32.54178   -32.54178   -32.54178    -0.00000    -0.00000    -0.00000

 VOLUME and BASIS-vectors are now :
  energy-cutoff  :      381.21
  volume of cell :       36.67
      direct lattice vectors                 reciprocal lattice vectors
     3.322390000  0.000000000  0.000000000     0.300988144 -0.000000000  0.000000000
     0.000000000  3.322390000  0.000000000     0.000000000  0.300988144  0.000000000
     0.000000000  0.000000000  3.322390000    -0.000000000 -0.000000000  0.300988144

  length of vectors
     3.322390000  3.322390000  3.322390000     0.300988144  0.300988144  0.300988144

 FORCES acting on ions
    electron-ion (+dipol)            ewald-force                    non-local-force                 convergence-correction
   0.111E-14 0.144E-16 -.290E-14   0.196E-14 0.364E-14 -.134E-14   -.306E-24 -.175E-24 -.517E-25   -.118E-13 -.105E-14 0.543E-14
   0.149E-12 0.187E-11 0.405E-12   -.671E-16 -.108E-15 0.390E-14   0.852E-25 -.454E-25 -.223E-24   -.626E-14 -.204E-14 0.163E-15
   0.150E-12 0.187E-11 0.402E-12   0.189E-14 0.353E-14 0.256E-14   -.221E-24 -.221E-24 -.275E-24   -.180E-13 -.310E-14 0.559E-14

 POSITION                                       TOTAL-FORCE (eV/Angst)
      0.00000      0.00000      0.00000         0.000000      0.000000     -0.000000
      1.66120      1.66119      1.66120        -0.000000     -0.000000      0.000000
    total drift:                                0.000000      0.000000      0.000000

  FREE ENERGIE OF THE ION-ELECTRON SYSTEM (eV)
  free  energy   TOTEN  =       -20.42900708 eV

  energy  without entropy=      -20.42646415  energy(sigma->0) =      -20.42773562

 writing wavefunctions