 vasp.6.4.3 19Mar24 (build Jun 26 2024 13:02:28) complex

 executed on             LinuxIFC date 2025.08.08  19:14:36

 INCAR:
   ENCUT = 342.57990000000007
   IBRION = -1
   ISMEAR = 0
   ISYM = 2
   LCHARG = True
   LWAVE = True
   SIGMA = 0.05
   SYSTEM = Tc

 POTCAR:  PAW_PBE Tc_pv 04Feb2005
|           W    W    AA    RRRRR   N    N  II  N    N   GGGG   !!!           |
|           W    W   A  A   R    R  NN   N  II  NN   N  G    G  !!!           |
|           W    W  A    A  R    R  N N  N  II  N N  N  G       !!!           |
|           W WW W  AAAAAA  RRRRR   N  N N  II  N  N N  G  GGG   !            |
|           WW  WW  A    A  R   R   N   NN  II  N   NN  G    G                |
|           W    W  A    A  R    R  N    N  II  N    N   GGGG   !!!           |
|     For optimal performance we recommend to set                             |
|       NCORE = 2 up to number-of-cores-per-socket                            |
|     This setting can greatly improve the performance of VASP for DFT.       |
|     The default, NCORE=1 might be grossly inefficient on modern             |
|     multi-core architectures or massively parallel machines. Do your        |
|     Unfortunately you need to use the default for GW and RPA                |
|     calculations (for HF NCORE is supported but not extensively tested      |
|     yet).                                                                   |

 POTCAR:  PAW_PBE Tc_pv 04Feb2005
   VRHFIN =Tc: 4p5s4d

   TITEL  = PAW_PBE Tc_pv 04Feb2005
   POMASS =   98.906; ZVAL   =   13.000    mass and valenz
   ENMAX  =  263.523; ENMIN  =  197.642 eV

PAW_PBE Tc_pv 04Feb2005                 :

 POSCAR: Tc2
  positions in direct lattice

 exchange-correlation table for PE
   RHO(1)=    0.500       N(1)  =     2000
   RHO(2)=  100.500       N(2)  =     4000

 ion  position               nearest neighbor table
   1  0.000  0.000  0.000-   2 2.72   2 2.72   2 2.72   2 2.72   2 2.72   2 2.72
   2  0.333  0.333  0.500-   1 2.72   1 2.72   1 2.72   1 2.72   1 2.72   1 2.72

  LATTYP: Found a hexagonal cell.
 ALAT       =     2.7618700000
 C/A-ratio  =     1.6000210003

  Lattice vectors:

 A1 = (  -1.3809350000,  -2.3918495820,   0.0000000000)
 A2 = (   2.7618700000,   0.0000000000,   0.0000000000)
 A3 = (   0.0000000000,   0.0000000000,   4.4190500000)

Analysis of symmetry for initial positions (statically):
 Subroutine PRICEL returns:
 Original cell was already a primitive cell.

 Routine SETGRP: Setting up the symmetry group for a
 hexagonal supercell.

 Subroutine GETGRP returns: Found 24 space group operations
 (whereof 12 operations were pure point group operations)
 out of a pool of 24 trial point group operations.

The static configuration has the point symmetry D_3h.
 The point group associated with its full space group is D_6h.

Analysis of symmetry for dynamics (positions and initial velocities):
 Subroutine PRICEL returns:
 Original cell was already a primitive cell.

 Routine SETGRP: Setting up the symmetry group for a
 hexagonal supercell.

 Subroutine GETGRP returns: Found 24 space group operations
 (whereof 12 operations were pure point group operations)
 out of a pool of 24 trial point group operations.

The dynamic configuration has the point symmetry D_3h.
 The point group associated with its full space group is D_6h.

 Subroutine INISYM returns: Found 24 space group operations
 (whereof 12 operations are pure point group operations),
 and found     1 'primitive' translations

                                     Primitive cell

  volume of cell :      29.1921

  direct lattice vectors                    reciprocal lattice vectors
     2.761870000  0.000000000  0.000000000     0.362073523 -0.209043246  0.000000000
     1.380935000  2.391849582  0.000000000     0.000000000  0.418086492  0.000000000
     0.000000000  0.000000000  4.419050000    -0.000000000 -0.000000000  0.226292982

  length of vectors
     2.761870000  2.761870000  4.419050000     0.418086492  0.418086492  0.226292982

  position of ions in fractional coordinates (direct lattice)
     0.000000000  0.000000000  0.000000000
     0.333333333  0.333333333  0.500000000

  ion indices of the primitive-cell ions
   primitive index   ion index
                 1           1
                 2           2

 KPOINTS: Automatic kpoint scheme

Automatic generation of k-mesh.
 Grid dimensions read from file:
 generate k-points for:    8    8    8

 Generating k-lattice:

  Cartesian coordinates                     Fractional coordinates (reciprocal lattice)
     0.045259190 -0.026130406  0.000000000     0.125000000  0.000000000  0.000000000
     0.000000000  0.052260811  0.000000000     0.000000000  0.125000000  0.000000000
    -0.000000000 -0.000000000  0.028286623     0.000000000  0.000000000  0.125000000

  Length of vectors
     0.052260811  0.052260811  0.028286623

  Shift w.r.t. Gamma in fractional coordinates (k-lattice)
     0.000000000  0.000000000  0.000000000

 Subroutine IBZKPT returns following result:

 Found     50 irreducible k-points:

 Following reciprocal coordinates:
            Coordinates               Weight
  0.000000  0.000000  0.000000      1.000000
  0.125000  0.000000  0.000000      6.000000
  0.250000  0.000000  0.000000      6.000000
  0.375000  0.000000  0.000000      6.000000
  0.500000  0.000000  0.000000      3.000000
  0.250000  0.125000  0.000000      6.000000
  0.375000  0.125000  0.000000     12.000000
  0.500000  0.125000  0.000000     12.000000
  0.500000  0.250000  0.000000      6.000000
 -0.375000  0.250000  0.000000      6.000000
 -0.000000 -0.000000  0.125000      2.000000
  0.125000  0.000000  0.125000     12.000000
  0.250000  0.000000  0.125000     12.000000
  0.375000  0.000000  0.125000     12.000000
  0.500000  0.000000  0.125000      6.000000
  0.250000  0.125000  0.125000     12.000000
  0.375000  0.125000  0.125000     24.000000
  0.500000  0.125000  0.125000     24.000000
  0.500000  0.250000  0.125000     12.000000
 -0.375000  0.250000  0.125000     12.000000
 -0.000000 -0.000000  0.250000      2.000000
  0.125000 -0.000000  0.250000     12.000000
  0.250000  0.000000  0.250000     12.000000
  0.375000  0.000000  0.250000     12.000000
  0.500000  0.000000  0.250000      6.000000
  0.250000  0.125000  0.250000     12.000000
  0.375000  0.125000  0.250000     24.000000
  0.500000  0.125000  0.250000     24.000000
  0.500000  0.250000  0.250000     12.000000
 -0.375000  0.250000  0.250000     12.000000
  0.000000 -0.000000  0.375000      2.000000
  0.125000  0.000000  0.375000     12.000000
  0.250000 -0.000000  0.375000     12.000000
  0.375000  0.000000  0.375000     12.000000
  0.500000  0.000000  0.375000      6.000000
  0.250000  0.125000  0.375000     12.000000
  0.375000  0.125000  0.375000     24.000000
  0.500000  0.125000  0.375000     24.000000
  0.500000  0.250000  0.375000     12.000000
 -0.375000  0.250000  0.375000     12.000000
 -0.000000 -0.000000  0.500000      1.000000
  0.125000  0.000000  0.500000      6.000000
  0.250000 -0.000000  0.500000      6.000000
  0.375000  0.000000  0.500000      6.000000
  0.500000  0.000000  0.500000      3.000000
  0.250000  0.125000  0.500000      6.000000
  0.375000  0.125000  0.500000     12.000000
  0.500000  0.125000  0.500000     12.000000
  0.500000  0.250000  0.500000      6.000000
 -0.375000  0.250000  0.500000      6.000000

 Following cartesian coordinates:
            Coordinates               Weight
  0.000000  0.000000  0.000000      1.000000
  0.045259 -0.026130  0.000000      6.000000
  0.090518 -0.052261  0.000000      6.000000
  0.135778 -0.078391  0.000000      6.000000
  0.181037 -0.104522  0.000000      3.000000
  0.090518 -0.000000  0.000000      6.000000
  0.135778 -0.026130  0.000000     12.000000
  0.181037 -0.052261  0.000000     12.000000
  0.181037 -0.000000  0.000000      6.000000
 -0.135778  0.182913  0.000000      6.000000
 -0.000000 -0.000000  0.028287      2.000000
  0.045259 -0.026130  0.028287     12.000000
  0.090518 -0.052261  0.028287     12.000000
  0.135778 -0.078391  0.028287     12.000000
  0.181037 -0.104522  0.028287      6.000000
  0.090518 -0.000000  0.028287     12.000000
  0.135778 -0.026130  0.028287     24.000000
  0.181037 -0.052261  0.028287     24.000000
  0.181037 -0.000000  0.028287     12.000000
 -0.135778  0.182913  0.028287     12.000000
 -0.000000 -0.000000  0.056573      2.000000
  0.045259 -0.026130  0.056573     12.000000
  0.090518 -0.052261  0.056573     12.000000
  0.135778 -0.078391  0.056573     12.000000
  0.181037 -0.104522  0.056573      6.000000
  0.090518 -0.000000  0.056573     12.000000
  0.135778 -0.026130  0.056573     24.000000
  0.181037 -0.052261  0.056573     24.000000
  0.181037 -0.000000  0.056573     12.000000
 -0.135778  0.182913  0.056573     12.000000
 -0.000000 -0.000000  0.084860      2.000000
  0.045259 -0.026130  0.084860     12.000000
  0.090518 -0.052261  0.084860     12.000000
  0.135778 -0.078391  0.084860     12.000000
  0.181037 -0.104522  0.084860      6.000000
  0.090518 -0.000000  0.084860     12.000000
  0.135778 -0.026130  0.084860     24.000000
  0.181037 -0.052261  0.084860     24.000000
  0.181037 -0.000000  0.084860     12.000000
 -0.135778  0.182913  0.084860     12.000000
 -0.000000 -0.000000  0.113146      1.000000
  0.045259 -0.026130  0.113146      6.000000
  0.090518 -0.052261  0.113146      6.000000
  0.135778 -0.078391  0.113146      6.000000
  0.181037 -0.104522  0.113146      3.000000
  0.090518 -0.000000  0.113146      6.000000
  0.135778 -0.026130  0.113146     12.000000
  0.181037 -0.052261  0.113146     12.000000
  0.181037 -0.000000  0.113146      6.000000
 -0.135778  0.182913  0.113146      6.000000

 Subroutine IBZKPT_HF returns following result:

 Found    512 k-points in 1st BZ
 the following    512 k-points will be used (e.g. in the exchange kernel)
 Following reciprocal coordinates:   # in IRBZ
  0.000000  0.000000  0.000000    0.00195312   1 t-inv F
  0.125000  0.000000  0.000000    0.00195312   2 t-inv F
  0.250000  0.000000  0.000000    0.00195312   3 t-inv F
  0.375000  0.000000  0.000000    0.00195312   4 t-inv F
  0.500000  0.000000  0.000000    0.00195312   5 t-inv F
  0.250000  0.125000  0.000000    0.00195312   6 t-inv F
  0.375000  0.125000  0.000000    0.00195312   7 t-inv F
  0.500000  0.125000  0.000000    0.00195312   8 t-inv F
  0.500000  0.250000  0.000000    0.00195312   9 t-inv F
 -0.375000  0.250000  0.000000    0.00195312  10 t-inv F
 -0.000000 -0.000000  0.125000    0.00195312  11 t-inv F
  0.125000  0.000000  0.125000    0.00195312  12 t-inv F
  0.250000  0.000000  0.125000    0.00195312  13 t-inv F
  0.375000  0.000000  0.125000    0.00195312  14 t-inv F
  0.500000  0.000000  0.125000    0.00195312  15 t-inv F
  0.250000  0.125000  0.125000    0.00195312  16 t-inv F
  0.375000  0.125000  0.125000    0.00195312  17 t-inv F
  0.500000  0.125000  0.125000    0.00195312  18 t-inv F
  0.500000  0.250000  0.125000    0.00195312  19 t-inv F
 -0.375000  0.250000  0.125000    0.00195312  20 t-inv F
 -0.000000 -0.000000  0.250000    0.00195312  21 t-inv F
  0.125000 -0.000000  0.250000    0.00195312  22 t-inv F
[...]
  -0.13577757  0.18291284  0.05657325       0.023
  -0.00000000 -0.00000000  0.08485987       0.004
   0.04525919 -0.02613041  0.08485987       0.023
   0.09051838 -0.05226081  0.08485987       0.023
   0.13577757 -0.07839122  0.08485987       0.023
   0.18103676 -0.10452162  0.08485987       0.012
   0.09051838 -0.00000000  0.08485987       0.023
   0.13577757 -0.02613041  0.08485987       0.047
   0.18103676 -0.05226081  0.08485987       0.047
   0.18103676 -0.00000000  0.08485987       0.023
  -0.13577757  0.18291284  0.08485987       0.023
  -0.00000000 -0.00000000  0.11314649       0.002
   0.04525919 -0.02613041  0.11314649       0.012
   0.09051838 -0.05226081  0.11314649       0.012
   0.13577757 -0.07839122  0.11314649       0.012
   0.18103676 -0.10452162  0.11314649       0.006
   0.09051838 -0.00000000  0.11314649       0.012
   0.13577757 -0.02613041  0.11314649       0.023
   0.18103676 -0.05226081  0.11314649       0.023
   0.18103676 -0.00000000  0.11314649       0.012
  -0.13577757  0.18291284  0.11314649       0.012

 k-points in reciprocal lattice and weights: Automatic kpoint scheme
   0.00000000  0.00000000  0.00000000       0.002
   0.12500000  0.00000000  0.00000000       0.012
   0.25000000  0.00000000  0.00000000       0.012
   0.37500000  0.00000000  0.00000000       0.012
   0.50000000  0.00000000  0.00000000       0.006
   0.25000000  0.12500000  0.00000000       0.012
   0.37500000  0.12500000  0.00000000       0.023
   0.50000000  0.12500000  0.00000000       0.023
   0.50000000  0.25000000  0.00000000       0.012
  -0.37500000  0.25000000  0.00000000       0.012
  -0.00000000 -0.00000000  0.12500000       0.004
   0.12500000  0.00000000  0.12500000       0.023
   0.25000000  0.00000000  0.12500000       0.023
   0.37500000  0.00000000  0.12500000       0.023
   0.50000000  0.00000000  0.12500000       0.012
   0.25000000  0.12500000  0.12500000       0.023
   0.37500000  0.12500000  0.12500000       0.047
   0.50000000  0.12500000  0.12500000       0.047
   0.50000000  0.25000000  0.12500000       0.023
  -0.37500000  0.25000000  0.12500000       0.023
  -0.00000000 -0.00000000  0.25000000       0.004
   0.12500000 -0.00000000  0.25000000       0.023
   0.25000000  0.00000000  0.25000000       0.023
   0.37500000  0.00000000  0.25000000       0.023
   0.50000000  0.00000000  0.25000000       0.012
   0.25000000  0.12500000  0.25000000       0.023
   0.37500000  0.12500000  0.25000000       0.047
   0.50000000  0.12500000  0.25000000       0.047
   0.50000000  0.25000000  0.25000000       0.023
  -0.37500000  0.25000000  0.25000000       0.023
   0.00000000 -0.00000000  0.37500000       0.004
   0.12500000  0.00000000  0.37500000       0.023
   0.25000000 -0.00000000  0.37500000       0.023
   0.37500000  0.00000000  0.37500000       0.023
   0.50000000  0.00000000  0.37500000       0.012
   0.25000000  0.12500000  0.37500000       0.023
   0.37500000  0.12500000  0.37500000       0.047
   0.50000000  0.12500000  0.37500000       0.047
   0.50000000  0.25000000  0.37500000       0.023
  -0.37500000  0.25000000  0.37500000       0.023
  -0.00000000 -0.00000000  0.50000000       0.002
   0.12500000  0.00000000  0.50000000       0.012
   0.25000000 -0.00000000  0.50000000       0.012
   0.37500000  0.00000000  0.50000000       0.012
   0.50000000  0.00000000  0.50000000       0.006
   0.25000000  0.12500000  0.50000000       0.012
   0.37500000  0.12500000  0.50000000       0.023
   0.50000000  0.12500000  0.50000000       0.023
   0.50000000  0.25000000  0.50000000       0.012
  -0.37500000  0.25000000  0.50000000       0.012

 position of ions in fractional coordinates (direct lattice)
   0.00000000  0.00000000  0.00000000
   0.33333333  0.33333333  0.50000000

 position of ions in cartesian coordinates  (Angst):
   0.00000000  0.00000000  0.00000000
   1.38093500  0.79728319  2.20952500

 k-point     1 :   0.0000 0.0000 0.0000  plane waves:     403
 k-point     2 :   0.1250 0.0000 0.0000  plane waves:     407
 k-point     3 :   0.2500 0.0000 0.0000  plane waves:     423
 k-point     4 :   0.3750 0.0000 0.0000  plane waves:     427
 k-point     5 :   0.5000 0.0000 0.0000  plane waves:     428
 k-point     6 :   0.2500 0.1250 0.0000  plane waves:     418
 k-point     7 :   0.3750 0.1250 0.0000  plane waves:     417
 k-point     8 :   0.5000 0.1250 0.0000  plane waves:     427
 k-point     9 :   0.5000 0.2500 0.0000  plane waves:     426
 k-point    10 :  -0.3750 0.2500 0.0000  plane waves:     422
 k-point    11 :  -0.0000-0.0000 0.1250  plane waves:     409
 k-point    12 :   0.1250 0.0000 0.1250  plane waves:     412
 k-point    13 :   0.2500 0.0000 0.1250  plane waves:     420
 k-point    14 :   0.3750 0.0000 0.1250  plane waves:     425
 k-point    15 :   0.5000 0.0000 0.1250  plane waves:     426
 k-point    16 :   0.2500 0.1250 0.1250  plane waves:     420
 k-point    17 :   0.3750 0.1250 0.1250  plane waves:     416
 k-point    18 :   0.5000 0.1250 0.1250  plane waves:     425
 k-point    19 :   0.5000 0.2500 0.1250  plane waves:     420
 k-point    20 :  -0.3750 0.2500 0.1250  plane waves:     425
 k-point    21 :  -0.0000-0.0000 0.2500  plane waves:     415
 k-point    22 :   0.1250-0.0000 0.2500  plane waves:     420
 k-point    23 :   0.2500 0.0000 0.2500  plane waves:     424
 k-point    24 :   0.3750 0.0000 0.2500  plane waves:     422
 k-point    25 :   0.5000 0.0000 0.2500  plane waves:     424
 k-point    26 :   0.2500 0.1250 0.2500  plane waves:     418
 k-point    27 :   0.3750 0.1250 0.2500  plane waves:     421
 k-point    28 :   0.5000 0.1250 0.2500  plane waves:     418
 k-point    29 :   0.5000 0.2500 0.2500  plane waves:     419
 k-point    30 :  -0.3750 0.2500 0.2500  plane waves:     424
 k-point    31 :   0.0000-0.0000 0.3750  plane waves:     410
 k-point    32 :   0.1250 0.0000 0.3750  plane waves:     420
 k-point    33 :   0.2500-0.0000 0.3750  plane waves:     419
 k-point    34 :   0.3750 0.0000 0.3750  plane waves:     420
 k-point    35 :   0.5000 0.0000 0.3750  plane waves:     424
 k-point    36 :   0.2500 0.1250 0.3750  plane waves:     421
 k-point    37 :   0.3750 0.1250 0.3750  plane waves:     422
 k-point    38 :   0.5000 0.1250 0.3750  plane waves:     416
 k-point    39 :   0.5000 0.2500 0.3750  plane waves:     416
 k-point    40 :  -0.3750 0.2500 0.3750  plane waves:     425
 k-point    41 :  -0.0000-0.0000 0.5000  plane waves:     422
 k-point    42 :   0.1250 0.0000 0.5000  plane waves:     414
 k-point    43 :   0.2500-0.0000 0.5000  plane waves:     416
 k-point    44 :   0.3750 0.0000 0.5000  plane waves:     416
 k-point    45 :   0.5000 0.0000 0.5000  plane waves:     428
 k-point    46 :   0.2500 0.1250 0.5000  plane waves:     416
 k-point    47 :   0.3750 0.1250 0.5000  plane waves:     420
 k-point    48 :   0.5000 0.1250 0.5000  plane waves:     420
 k-point    49 :   0.5000 0.2500 0.5000  plane waves:     424
 k-point    50 :  -0.3750 0.2500 0.5000  plane waves:     428

 maximum and minimum number of plane-waves per node :       428      403

 maximum number of plane-waves:       428
 maximum index in each direction:
   IXMAX=    4   IYMAX=    4   IZMAX=    6
   IXMIN=   -4   IYMIN=   -4   IZMIN=   -7

 serial   3D FFT for wavefunctions
 parallel 3D FFT for charge:
    minimum data exchange during FFTs selected (reduces bandwidth)

 Broyden mixing: mesh for mixing (old mesh)
   NGX =  9   NGY =  9   NGZ = 13
  (NGX  = 28   NGY  = 28   NGZ  = 40)
  gives a total of   1053 points

 charge density for first step will be calculated from the start-wavefunctions

 Maximum index for augmentation-charges          341 (set IRDMAX)

 initial charge from wavefunction
 First call to EWALD:  gamma=   0.576
 Maximum number of real-space cells 3x 3x 2
 Maximum number of reciprocal cells 3x 3x 4

--------------------------------------- Ionic step        1  -------------------------------------------

--------------------------------------- Iteration      1(   1)  ---------------------------------------

 eigenvalue-minimisations  :  2592
 total energy-change (2. order) :-0.2071404E+02  (-0.1738823E-05)
 number of electron      25.9999965 magnetization
 augmentation part        6.4088254 magnetization

 Broyden mixing:
  rms(total) = 0.90588E-03    rms(broyden)= 0.90571E-03
  rms(prec ) = 0.12479E-02
  weight for this iteration     100.00

 Free energy of the ion-electron system (eV)
  alpha Z        PSCENC =       209.05504443
  Ewald energy   TEWEN  =     -2875.79382814
  -Hartree energ DENC   =      -401.31254372
  -exchange      EXHF   =         0.00000000
  -V(xc)+E(xc)   XCENC  =        96.66894473
  PAW double counting   =      3469.89915994    -3459.11307001
  entropy T*S    EENTRO =        -0.00205679
  eigenvalues    EBANDS =      -180.38914100
  atomic energy  EATOM  =      3120.27344897
  Solvation  Ediel_sol  =         0.00000000
  free energy    TOTEN  =       -20.71404161 eV

  energy without entropy =      -20.71198482  energy(sigma->0) =      -20.71301321

--------------------------------------- Iteration      1(   2)  ---------------------------------------

 eigenvalue-minimisations  :  2544
 total energy-change (2. order) : 0.2328061E-06  (-0.1467113E-06)
 number of electron      25.9999965 magnetization
 augmentation part        6.4088254 magnetization

 Free energy of the ion-electron system (eV)
  alpha Z        PSCENC =       209.05504443
  Ewald energy   TEWEN  =     -2875.79382814
  -Hartree energ DENC   =      -401.32734023
  -exchange      EXHF   =         0.00000000
  -V(xc)+E(xc)   XCENC  =        96.66966658
  PAW double counting   =      3469.75992133    -3458.97119480
  entropy T*S    EENTRO =        -0.00205705
  eigenvalues    EBANDS =      -180.37770246
  atomic energy  EATOM  =      3120.27344897
  Solvation  Ediel_sol  =         0.00000000
  free energy    TOTEN  =       -20.71404138 eV

  energy without entropy =      -20.71198433  energy(sigma->0) =      -20.71301285

 average (electrostatic) potential at core
  the test charge radii are     1.0929
  (the norm of the test charge is              1.0000)
       1 -67.3583       2 -67.3583

 E-fermi :  12.2903     XC(G=0): -13.6805     alpha+bet :-19.9435

 val. band max:       12.2528828701   @ k =   0.2500   0.1250   0.2500
 cond. band min:      12.3143602829   @ k =   0.2500  -0.0000   0.3750
 fundamental gap:      0.0614774129
 Fermi energy:        12.2902933865

 k-point     1 :       0.0000    0.0000    0.0000
  band No.  band energies     occupation
      1     -27.0624      2.00000
      2     -26.0367      2.00000
      3     -26.0367      2.00000
      4     -25.8587      2.00000
      5     -25.8587      2.00000
      6     -25.8058      2.00000
      7       5.0760      2.00000
      8       7.0223      2.00000
      9      10.8188      2.00000
     10      10.8188      2.00000
     11      10.9180      2.00000
     12      11.5210      2.00000
     13      11.5210      2.00000
     14      12.1920      1.99457
     15      12.1920      1.99457
     16      13.9650      0.00000
     17      14.7915      0.00000
     18      14.7915      0.00000
     19      23.1451      0.00000
     20      26.5981      0.00000
     21      28.7912      0.00000
     22      29.7050      0.00000
     23      34.5178      0.00000
     24      34.5178      0.00000
     25      34.7653      0.00000
     26      34.7653      0.00000
     27      36.1621      0.00000
     28      38.2119      0.00000
     29      38.2119      0.00000
     30      39.1985      0.00000
     31      39.2026      0.00000
     32      41.1329      0.00000
     33      41.1329      0.00000
     34      44.8404      0.00000
     35      45.3828      0.00000
     36      49.2453      0.00000
     37      49.2453      0.00000
     38      50.4780      0.00000
     39      50.4780      0.00000
     40      51.0600      0.00000
     41      54.7929      0.00000
     42      56.8567      0.00000
     43      56.8567      0.00000
     44      57.0288      0.00000
     45      57.0288      0.00000
     46      57.2580      0.00000
     47      60.9574      0.00000
     48      60.9574      0.00000

[...]

 k-point    50 :      -0.3750    0.2500    0.5000
  band No.  band energies     occupation
      1     -26.8518      2.00000
      2     -26.8518      2.00000
      3     -26.4862      2.00000
      4     -26.4862      2.00000
      5     -26.0381      2.00000
      6     -26.0381      2.00000
      7       8.2456      2.00000
      8       8.2456      2.00000
      9       9.3400      2.00000
     10       9.3400      2.00000
     11      10.5971      2.00000
     12      10.5971      2.00000
     13      12.4247      0.00014
     14      12.4247      0.00014
     15      14.9520      0.00000
     16      14.9520      0.00000
     17      20.4131      0.00000
     18      20.4131      0.00000
     19      23.7829      0.00000
     20      23.7829      0.00000
     21      25.2257      0.00000
     22      25.2257      0.00000
     23      31.1232      0.00000
     24      31.1232      0.00000
     25      34.4705      0.00000
     26      34.4705      0.00000
     27      36.2652      0.00000
     28      36.2652      0.00000
     29      39.1995      0.00000
     30      39.1996      0.00000
     31      41.3765      0.00000
     32      41.3765      0.00000
     33      44.9486      0.00000
     34      44.9486      0.00000
     35      47.5322      0.00000
     36      47.5322      0.00000
     37      50.8175      0.00000
     38      50.8175      0.00000
     39      52.4922      0.00000
     40      52.4922      0.00000
     41      52.6735      0.00000
     42      52.6735      0.00000
     43      54.9889      0.00000
     44      54.9889      0.00000
     45      58.3635      0.00000
     46      58.3635      0.00000
     47      60.1534      0.00000
     48      60.1534      0.00000

 soft charge-density along one line, spin component           1
         0         1         2         3         4         5         6         7         8         9
 total charge-density along one line

------------------------ aborting loop because EDIFF is reached ----------------------------------------

  FORCE on cell =-STRESS in cart. coord.  units (eV):
  Direction    XX          YY          ZZ          XY          YZ          ZX
  Alpha Z   209.05504   209.05504   209.05504
  Ewald    -967.18508  -967.18508  -941.42566    -0.00000     0.00000     0.00000
  Hartree   130.03174   130.03174   141.27367     0.00000    -0.00000    -0.00000
  E(xc)    -124.27381  -124.27381  -124.24989     0.00001    -0.00000    -0.00000
  Local     254.30816   254.30812   217.40105     0.00003    -0.00001    -0.00002
  n-local   -87.30439   -63.03881   -74.52199     7.33995    -0.91917     1.66683
  augment    92.22389    92.22383    92.20455     0.00004     0.00000     0.00001
  Kinetic   471.81647   488.39344   479.46284     4.47374    -1.48796    -1.15384
  Fock        0.00000     0.00000     0.00000     0.00000     0.00000     0.00000
  Total      -0.90675    -0.90675    -0.80038    -0.00000    -0.00000    -0.00000
  in kB     -49.76620   -49.76620   -43.92815    -0.00000    -0.00000    -0.00000

 VOLUME and BASIS-vectors are now :
  energy-cutoff  :      342.58
  volume of cell :       29.19
      direct lattice vectors                 reciprocal lattice vectors
     2.761870000  0.000000000  0.000000000     0.362073523 -0.209043246  0.000000000
     1.380935000  2.391849582  0.000000000     0.000000000  0.418086492  0.000000000
     0.000000000  0.000000000  4.419050000    -0.000000000 -0.000000000  0.226292982

  length of vectors
     2.761870000  2.761870000  4.419050000     0.418086492  0.418086492  0.226292982

 FORCES acting on ions
    electron-ion (+dipol)            ewald-force                    non-local-force                 convergence-correction
   0.632E-07 0.365E-07 0.115E-07   0.189E-11 0.110E-11 -.469E-13   0.269E-17 0.455E-17 0.363E-17   -.948E-08 -.547E-08 0.157E-12
   -.511E-06 -.295E-06 0.295E-06   -.189E-11 -.110E-11 0.469E-13   -.298E-17 -.509E-17 -.678E-17   0.947E-08 0.547E-08 -.503E-13
   -.447E-06 -.258E-06 0.306E-06   -.422E-14 -.221E-14 -.188E-16   -.291E-18 -.539E-18 -.314E-17   -.631E-11 -.363E-11 0.107E-12

 POSITION                                       TOTAL-FORCE (eV/Angst)
      0.00000      0.00000      0.00000        -0.000000     -0.000000      0.000000
      1.38094      0.79728      2.20953         0.000000      0.000000     -0.000000
    total drift:                               -0.000000     -0.000000      0.000000

  FREE ENERGIE OF THE ION-ELECTRON SYSTEM (eV)
  free  energy   TOTEN  =       -20.71404138 eV

  energy  without entropy=      -20.71198433  energy(sigma->0) =      -20.71301285

 writing wavefunctions