 vasp.6.4.3 19Mar24 (build Jun 26 2024 13:02:28) complex

 executed on             LinuxIFC date 2025.08.08  18:43:12

 INCAR:
   ENCUT = 356.63680000000005
   IBRION = -1
   ISMEAR = 0
   ISYM = 2
   LCHARG = True
   LWAVE = True
   SIGMA = 0.05
   SYSTEM = Cd

 POTCAR:  PAW_PBE Cd 06Sep2000
|           W    W    AA    RRRRR   N    N  II  N    N   GGGG   !!!           |
|           W    W   A  A   R    R  NN   N  II  NN   N  G    G  !!!           |
|           W    W  A    A  R    R  N N  N  II  N N  N  G       !!!           |
|           W WW W  AAAAAA  RRRRR   N  N N  II  N  N N  G  GGG   !            |
|           WW  WW  A    A  R   R   N   NN  II  N   NN  G    G                |
|           W    W  A    A  R    R  N    N  II  N    N   GGGG   !!!           |
|     For optimal performance we recommend to set                             |
|       NCORE = 2 up to number-of-cores-per-socket                            |
|     This setting can greatly improve the performance of VASP for DFT.       |
|     The default, NCORE=1 might be grossly inefficient on modern             |
|     multi-core architectures or massively parallel machines. Do your        |
|     Unfortunately you need to use the default for GW and RPA                |
|     calculations (for HF NCORE is supported but not extensively tested      |
|     yet).                                                                   |

 POTCAR:  PAW_PBE Cd 06Sep2000
   VRHFIN =Cd : s2 d10

   TITEL  = PAW_PBE Cd 06Sep2000
   POMASS =  112.411; ZVAL   =   12.000    mass and valenz
   ENMAX  =  274.336; ENMIN  =  205.752 eV

PAW_PBE Cd 06Sep2000                    :

 POSCAR: Cd2
  positions in direct lattice

 exchange-correlation table for PE
   RHO(1)=    0.500       N(1)  =     2000
   RHO(2)=  100.500       N(2)  =     4000

 ion  position               nearest neighbor table
   1  0.000  0.000  0.000-   2 3.38   2 3.38   2 3.38   2 3.38   2 3.38   2 3.38
   2  0.333  0.333  0.500-   1 3.38   1 3.38   1 3.38   1 3.38   1 3.38   1 3.38

  LATTYP: Found a hexagonal cell.
 ALAT       =     3.0371600000
 C/A-ratio  =     1.9000019755

  Lattice vectors:

 A1 = (  -1.5185800000,  -2.6302577154,   0.0000000000)
 A2 = (   3.0371600000,   0.0000000000,   0.0000000000)
 A3 = (   0.0000000000,   0.0000000000,   5.7706100000)

Analysis of symmetry for initial positions (statically):
 Subroutine PRICEL returns:
 Original cell was already a primitive cell.

 Routine SETGRP: Setting up the symmetry group for a
 hexagonal supercell.

 Subroutine GETGRP returns: Found 24 space group operations
 (whereof 12 operations were pure point group operations)
 out of a pool of 24 trial point group operations.

The static configuration has the point symmetry D_3h.
 The point group associated with its full space group is D_6h.

Analysis of symmetry for dynamics (positions and initial velocities):
 Subroutine PRICEL returns:
 Original cell was already a primitive cell.

 Routine SETGRP: Setting up the symmetry group for a
 hexagonal supercell.

 Subroutine GETGRP returns: Found 24 space group operations
 (whereof 12 operations were pure point group operations)
 out of a pool of 24 trial point group operations.

The dynamic configuration has the point symmetry D_3h.
 The point group associated with its full space group is D_6h.

 Subroutine INISYM returns: Found 24 space group operations
 (whereof 12 operations are pure point group operations),
 and found     1 'primitive' translations

                                     Primitive cell

  volume of cell :      46.0986

  direct lattice vectors                    reciprocal lattice vectors
     3.037160000  0.000000000  0.000000000     0.329254962 -0.190095441  0.000000000
     1.518580000  2.630257715  0.000000000     0.000000000  0.380190882  0.000000000
     0.000000000  0.000000000  5.770610000    -0.000000000 -0.000000000  0.173291905

  length of vectors
     3.037160000  3.037160000  5.770610000     0.380190882  0.380190882  0.173291905

  position of ions in fractional coordinates (direct lattice)
     0.000000000  0.000000000  0.000000000
     0.333333333  0.333333333  0.500000000

  ion indices of the primitive-cell ions
   primitive index   ion index
                 1           1
                 2           2

 KPOINTS: Automatic kpoint scheme

Automatic generation of k-mesh.
 Grid dimensions read from file:
 generate k-points for:   12   12   12

 Generating k-lattice:

  Cartesian coordinates                     Fractional coordinates (reciprocal lattice)
     0.027437913 -0.015841287  0.000000000     0.083333333  0.000000000  0.000000000
     0.000000000  0.031682573  0.000000000     0.000000000  0.083333333  0.000000000
    -0.000000000 -0.000000000  0.014440992     0.000000000 -0.000000000  0.083333333

  Length of vectors
     0.031682573  0.031682573  0.014440992

  Shift w.r.t. Gamma in fractional coordinates (k-lattice)
     0.000000000  0.000000000  0.000000000

 Subroutine IBZKPT returns following result:

 Found    133 irreducible k-points:

 Following reciprocal coordinates:
            Coordinates               Weight
  0.000000  0.000000  0.000000      1.000000
  0.083333 -0.000000  0.000000      6.000000
  0.166667 -0.000000  0.000000      6.000000
  0.250000 -0.000000  0.000000      6.000000
  0.333333 -0.000000  0.000000      6.000000
  0.416667  0.000000  0.000000      6.000000
  0.500000 -0.000000  0.000000      3.000000
  0.166667  0.083333  0.000000      6.000000
  0.250000  0.083333  0.000000     12.000000
  0.333333  0.083333  0.000000     12.000000
  0.416667  0.083333  0.000000     12.000000
  0.500000  0.083333  0.000000     12.000000
  0.333333  0.166667  0.000000      6.000000
  0.416667  0.166667  0.000000     12.000000
  0.500000  0.166667  0.000000     12.000000
 -0.416667  0.166667  0.000000      6.000000
  0.500000  0.250000  0.000000      6.000000
 -0.416667  0.250000  0.000000     12.000000
 -0.333333  0.333333  0.000000      2.000000
  0.000000  0.000000  0.083333      2.000000
  0.083333 -0.000000  0.083333     12.000000
  0.166667  0.000000  0.083333     12.000000
  0.250000 -0.000000  0.083333     12.000000
  0.333333 -0.000000  0.083333     12.000000
  0.416667  0.000000  0.083333     12.000000
  0.500000 -0.000000  0.083333      6.000000
  0.166667  0.083333  0.083333     12.000000
  0.250000  0.083333  0.083333     24.000000
  0.333333  0.083333  0.083333     24.000000
  0.416667  0.083333  0.083333     24.000000
  0.500000  0.083333  0.083333     24.000000
  0.333333  0.166667  0.083333     12.000000
  0.416667  0.166667  0.083333     24.000000
  0.500000  0.166667  0.083333     24.000000
 -0.416667  0.166667  0.083333     12.000000
  0.500000  0.250000  0.083333     12.000000
 -0.416667  0.250000  0.083333     24.000000
 -0.333333  0.333333  0.083333      4.000000
  0.000000 -0.000000  0.166667      2.000000
  0.083333 -0.000000  0.166667     12.000000
  0.166667  0.000000  0.166667     12.000000
  0.250000 -0.000000  0.166667     12.000000
  0.333333 -0.000000  0.166667     12.000000
  0.416667  0.000000  0.166667     12.000000
  0.500000 -0.000000  0.166667      6.000000
  0.166667  0.083333  0.166667     12.000000
  0.250000  0.083333  0.166667     24.000000
  0.333333  0.083333  0.166667     24.000000
  0.416667  0.083333  0.166667     24.000000
  0.500000  0.083333  0.166667     24.000000
  0.333333  0.166667  0.166667     12.000000
  0.416667  0.166667  0.166667     24.000000
  0.500000  0.166667  0.166667     24.000000
 -0.416667  0.166667  0.166667     12.000000
  0.500000  0.250000  0.166667     12.000000
 -0.416667  0.250000  0.166667     24.000000
 -0.333333  0.333333  0.166667      4.000000
  0.000000 -0.000000  0.250000      2.000000
  0.083333  0.000000  0.250000     12.000000
  0.166667  0.000000  0.250000     12.000000
[...]
  0.333333  0.000000  0.500000      6.000000
  0.416667  0.000000  0.500000      6.000000
  0.500000  0.000000  0.500000      3.000000
  0.166667  0.083333  0.500000      6.000000
  0.250000  0.083333  0.500000     12.000000
  0.333333  0.083333  0.500000     12.000000
  0.416667  0.083333  0.500000     12.000000
  0.500000  0.083333  0.500000     12.000000
  0.333333  0.166667  0.500000      6.000000
  0.416667  0.166667  0.500000     12.000000
  0.500000  0.166667  0.500000     12.000000
 -0.416667  0.166667  0.500000      6.000000
  0.500000  0.250000  0.500000      6.000000
 -0.416667  0.250000  0.500000     12.000000
 -0.333333  0.333333  0.500000      2.000000

 Following cartesian coordinates:
            Coordinates               Weight
  0.000000  0.000000  0.000000      1.000000
  0.027438 -0.015841  0.000000      6.000000
  0.054876 -0.031683  0.000000      6.000000
  0.082314 -0.047524  0.000000      6.000000
  0.109752 -0.063365  0.000000      6.000000
  0.137190 -0.079206  0.000000      6.000000
  0.164627 -0.095048  0.000000      3.000000
  0.054876  0.000000  0.000000      6.000000
  0.082314 -0.015841  0.000000     12.000000
  0.109752 -0.031683  0.000000     12.000000
  0.137190 -0.047524  0.000000     12.000000
  0.164627 -0.063365  0.000000     12.000000
  0.109752 -0.000000  0.000000      6.000000
  0.137190 -0.015841  0.000000     12.000000
  0.164627 -0.031683  0.000000     12.000000
 -0.137190  0.142572  0.000000      6.000000
  0.164627 -0.000000  0.000000      6.000000
 -0.137190  0.174254  0.000000     12.000000
 -0.109752  0.190095  0.000000      2.000000
 -0.000000 -0.000000  0.014441      2.000000
  0.027438 -0.015841  0.014441     12.000000
  0.054876 -0.031683  0.014441     12.000000
  0.082314 -0.047524  0.014441     12.000000
  0.109752 -0.063365  0.014441     12.000000
  0.137190 -0.079206  0.014441     12.000000
  0.164627 -0.095048  0.014441      6.000000
  0.054876  0.000000  0.014441     12.000000
  0.082314 -0.015841  0.014441     24.000000
  0.109752 -0.031683  0.014441     24.000000
  0.137190 -0.047524  0.014441     24.000000
  0.164627 -0.063365  0.014441     24.000000
  0.109752 -0.000000  0.014441     12.000000
  0.137190 -0.015841  0.014441     24.000000
  0.164627 -0.031683  0.014441     24.000000
 -0.137190  0.142572  0.014441     12.000000
  0.164627 -0.000000  0.014441     12.000000
 -0.137190  0.174254  0.014441     24.000000
 -0.109752  0.190095  0.014441      4.000000
 -0.000000 -0.000000  0.028882      2.000000
  0.027438 -0.015841  0.028882     12.000000
  0.054876 -0.031683  0.028882     12.000000
  0.082314 -0.047524  0.028882     12.000000
  0.109752 -0.063365  0.028882     12.000000
  0.137190 -0.079206  0.028882     12.000000
  0.164627 -0.095048  0.028882      6.000000
  0.054876  0.000000  0.028882     12.000000
  0.082314 -0.015841  0.028882     24.000000
  0.109752 -0.031683  0.028882     24.000000
  0.137190 -0.047524  0.028882     24.000000
  0.164627 -0.063365  0.028882     24.000000
  0.109752 -0.000000  0.028882     12.000000
  0.137190 -0.015841  0.028882     24.000000
  0.164627 -0.031683  0.028882     24.000000
 -0.137190  0.142572  0.028882     12.000000
  0.164627 -0.000000  0.028882     12.000000
 -0.137190  0.174254  0.028882     24.000000
 -0.109752  0.190095  0.028882      4.000000
 -0.000000 -0.000000  0.043323      2.000000
[...]
  -0.41666667  0.16666667  0.08333333       0.007
   0.50000000  0.25000000  0.08333333       0.007
  -0.41666667  0.25000000  0.08333333       0.014
  -0.33333333  0.33333333  0.08333333       0.002
   0.00000000 -0.00000000  0.16666667       0.001
   0.08333333 -0.00000000  0.16666667       0.007
   0.16666667  0.00000000  0.16666667       0.007
   0.25000000 -0.00000000  0.16666667       0.007
   0.33333333 -0.00000000  0.16666667       0.007
   0.41666667  0.00000000  0.16666667       0.007
   0.50000000 -0.00000000  0.16666667       0.003
   0.16666667  0.08333333  0.16666667       0.007
   0.25000000  0.08333333  0.16666667       0.014
   0.33333333  0.08333333  0.16666667       0.014
   0.41666667  0.08333333  0.16666667       0.014
   0.50000000  0.08333333  0.16666667       0.014
   0.33333333  0.16666667  0.16666667       0.007
   0.41666667  0.16666667  0.16666667       0.014
   0.50000000  0.16666667  0.16666667       0.014
  -0.41666667  0.16666667  0.16666667       0.007
   0.50000000  0.25000000  0.16666667       0.007
  -0.41666667  0.25000000  0.16666667       0.014
  -0.33333333  0.33333333  0.16666667       0.002
   0.00000000 -0.00000000  0.25000000       0.001
   0.08333333  0.00000000  0.25000000       0.007
   0.16666667  0.00000000  0.25000000       0.007
[...]
   0.33333333  0.00000000  0.50000000       0.003
   0.41666667  0.00000000  0.50000000       0.003
   0.50000000  0.00000000  0.50000000       0.002
   0.16666667  0.08333333  0.50000000       0.003
   0.25000000  0.08333333  0.50000000       0.007
   0.33333333  0.08333333  0.50000000       0.007
   0.41666667  0.08333333  0.50000000       0.007
   0.50000000  0.08333333  0.50000000       0.007
   0.33333333  0.16666667  0.50000000       0.003
   0.41666667  0.16666667  0.50000000       0.007
   0.50000000  0.16666667  0.50000000       0.007
  -0.41666667  0.16666667  0.50000000       0.003
   0.50000000  0.25000000  0.50000000       0.003
  -0.41666667  0.25000000  0.50000000       0.007
  -0.33333333  0.33333333  0.50000000       0.001

 position of ions in fractional coordinates (direct lattice)
   0.00000000  0.00000000  0.00000000
   0.33333333  0.33333333  0.50000000

 position of ions in cartesian coordinates  (Angst):
   0.00000000  0.00000000  0.00000000
   1.51858000  0.87675257  2.88530500

 k-point     1 :   0.0000 0.0000 0.0000  plane waves:     713
 k-point     2 :   0.0833-0.0000 0.0000  plane waves:     698
 k-point     3 :   0.1667-0.0000 0.0000  plane waves:     708
 k-point     4 :   0.2500-0.0000 0.0000  plane waves:     708
 k-point     5 :   0.3333-0.0000 0.0000  plane waves:     704
 k-point     6 :   0.4167 0.0000 0.0000  plane waves:     708
 k-point     7 :   0.5000-0.0000 0.0000  plane waves:     700
 k-point     8 :   0.1667 0.0833 0.0000  plane waves:     699
 k-point     9 :   0.2500 0.0833 0.0000  plane waves:     705
 k-point    10 :   0.3333 0.0833 0.0000  plane waves:     710
 k-point    11 :   0.4167 0.0833 0.0000  plane waves:     707
 k-point    12 :   0.5000 0.0833 0.0000  plane waves:     701
 k-point    13 :   0.3333 0.1667 0.0000  plane waves:     709
 k-point    14 :   0.4167 0.1667 0.0000  plane waves:     708
 k-point    15 :   0.5000 0.1667 0.0000  plane waves:     709
 k-point    16 :  -0.4167 0.1667 0.0000  plane waves:     692
 k-point    17 :   0.5000 0.2500 0.0000  plane waves:     709
 k-point    18 :  -0.4167 0.2500 0.0000  plane waves:     701
 k-point    19 :  -0.3333 0.3333 0.0000  plane waves:     693
 k-point    20 :   0.0000 0.0000 0.0833  plane waves:     701
 k-point    21 :   0.0833-0.0000 0.0833  plane waves:     698
 k-point    22 :   0.1667 0.0000 0.0833  plane waves:     705
 k-point    23 :   0.2500-0.0000 0.0833  plane waves:     705
 k-point    24 :   0.3333-0.0000 0.0833  plane waves:     703
 k-point    25 :   0.4167 0.0000 0.0833  plane waves:     706
 k-point    26 :   0.5000-0.0000 0.0833  plane waves:     706
 k-point    27 :   0.1667 0.0833 0.0833  plane waves:     704
 k-point    28 :   0.2500 0.0833 0.0833  plane waves:     704
 k-point    29 :   0.3333 0.0833 0.0833  plane waves:     710
 k-point    30 :   0.4167 0.0833 0.0833  plane waves:     707
 k-point    31 :   0.5000 0.0833 0.0833  plane waves:     701
 k-point    32 :   0.3333 0.1667 0.0833  plane waves:     707
 k-point    33 :   0.4167 0.1667 0.0833  plane waves:     706
 k-point    34 :   0.5000 0.1667 0.0833  plane waves:     703
 k-point    35 :  -0.4167 0.1667 0.0833  plane waves:     693
 k-point    36 :   0.5000 0.2500 0.0833  plane waves:     709
 k-point    37 :  -0.4167 0.2500 0.0833  plane waves:     698
 k-point    38 :  -0.3333 0.3333 0.0833  plane waves:     699
 k-point    39 :   0.0000-0.0000 0.1667  plane waves:     702
 k-point    40 :   0.0833-0.0000 0.1667  plane waves:     704
 k-point    41 :   0.1667 0.0000 0.1667  plane waves:     705
 k-point    42 :   0.2500-0.0000 0.1667  plane waves:     706
 k-point    43 :   0.3333-0.0000 0.1667  plane waves:     703
 k-point    44 :   0.4167 0.0000 0.1667  plane waves:     712
 k-point    45 :   0.5000-0.0000 0.1667  plane waves:     710
 k-point    46 :   0.1667 0.0833 0.1667  plane waves:     711
 k-point    47 :   0.2500 0.0833 0.1667  plane waves:     706
 k-point    48 :   0.3333 0.0833 0.1667  plane waves:     705
 k-point    49 :   0.4167 0.0833 0.1667  plane waves:     709
 k-point    50 :   0.5000 0.0833 0.1667  plane waves:     705
 k-point    51 :   0.3333 0.1667 0.1667  plane waves:     708
 k-point    52 :   0.4167 0.1667 0.1667  plane waves:     704
 k-point    53 :   0.5000 0.1667 0.1667  plane waves:     701
 k-point    54 :  -0.4167 0.1667 0.1667  plane waves:     693
 k-point    55 :   0.5000 0.2500 0.1667  plane waves:     705
 k-point    56 :  -0.4167 0.2500 0.1667  plane waves:     698
 k-point    57 :  -0.3333 0.3333 0.1667  plane waves:     699
 k-point    58 :   0.0000-0.0000 0.2500  plane waves:     702
 k-point    59 :   0.0833 0.0000 0.2500  plane waves:     712
 k-point    60 :   0.1667 0.0000 0.2500  plane waves:     707
[...]
 k-point   119 :   0.3333 0.0000 0.5000  plane waves:     706
 k-point   120 :   0.4167 0.0000 0.5000  plane waves:     702
 k-point   121 :   0.5000 0.0000 0.5000  plane waves:     688
 k-point   122 :   0.1667 0.0833 0.5000  plane waves:     720
 k-point   123 :   0.2500 0.0833 0.5000  plane waves:     708
 k-point   124 :   0.3333 0.0833 0.5000  plane waves:     704
 k-point   125 :   0.4167 0.0833 0.5000  plane waves:     702
 k-point   126 :   0.5000 0.0833 0.5000  plane waves:     702
 k-point   127 :   0.3333 0.1667 0.5000  plane waves:     708
 k-point   128 :   0.4167 0.1667 0.5000  plane waves:     706
 k-point   129 :   0.5000 0.1667 0.5000  plane waves:     704
 k-point   130 :  -0.4167 0.1667 0.5000  plane waves:     704
 k-point   131 :   0.5000 0.2500 0.5000  plane waves:     698
 k-point   132 :  -0.4167 0.2500 0.5000  plane waves:     706
 k-point   133 :  -0.3333 0.3333 0.5000  plane waves:     696

 maximum and minimum number of plane-waves per node :       726      688

 maximum number of plane-waves:       726
 maximum index in each direction:
   IXMAX=    5   IYMAX=    4   IZMAX=    8
   IXMIN=   -5   IYMIN=   -5   IZMIN=   -9

 serial   3D FFT for wavefunctions
 parallel 3D FFT for charge:
    minimum data exchange during FFTs selected (reduces bandwidth)

 Broyden mixing: mesh for mixing (old mesh)
   NGX =  9   NGY =  9   NGZ = 17
  (NGX  = 28   NGY  = 28   NGZ  = 56)
  gives a total of   1377 points

 charge density for first step will be calculated from the start-wavefunctions

 Maximum index for augmentation-charges          323 (set IRDMAX)

 initial charge from wavefunction
 First call to EWALD:  gamma=   0.494
 Maximum number of real-space cells 4x 4x 2
 Maximum number of reciprocal cells 2x 2x 4

--------------------------------------- Ionic step        1  -------------------------------------------

--------------------------------------- Iteration      1(   1)  ---------------------------------------

 eigenvalue-minimisations  :  6960
 total energy-change (2. order) :-0.1494507E+01  (-0.3629252E-05)
 number of electron      24.0000076 magnetization
 augmentation part       11.4380599 magnetization

 Broyden mixing:
  rms(total) = 0.11608E-02    rms(broyden)= 0.11582E-02
  rms(prec ) = 0.14879E-02
  weight for this iteration     100.00

 Free energy of the ion-electron system (eV)
  alpha Z        PSCENC =       193.16787861
  Ewald energy   TEWEN  =     -2096.48189481
  -Hartree energ DENC   =      -631.52616003
  -exchange      EXHF   =         0.00000000
  -V(xc)+E(xc)   XCENC  =        10.41395536
  PAW double counting   =      2501.92285198    -2434.23212301
  entropy T*S    EENTRO =        -0.00062790
  eigenvalues    EBANDS =      -131.02860545
  atomic energy  EATOM  =      2586.27021872
  Solvation  Ediel_sol  =         0.00000000
  free energy    TOTEN  =        -1.49450653 eV

  energy without entropy =       -1.49387863  energy(sigma->0) =       -1.49419258

--------------------------------------- Iteration      1(   2)  ---------------------------------------

 eigenvalue-minimisations  :  6720
 total energy-change (2. order) : 0.6887003E-06  (-0.5671789E-06)
 number of electron      24.0000076 magnetization
 augmentation part       11.4380599 magnetization

 Free energy of the ion-electron system (eV)
  alpha Z        PSCENC =       193.16787861
  Ewald energy   TEWEN  =     -2096.48189481
  -Hartree energ DENC   =      -631.55820789
  -exchange      EXHF   =         0.00000000
  -V(xc)+E(xc)   XCENC  =        10.41513589
  PAW double counting   =      2501.89565164    -2434.20609468
  entropy T*S    EENTRO =        -0.00062825
  eigenvalues    EBANDS =      -130.99656507
  atomic energy  EATOM  =      2586.27021872
  Solvation  Ediel_sol  =         0.00000000
  free energy    TOTEN  =        -1.49450584 eV

  energy without entropy =       -1.49387759  energy(sigma->0) =       -1.49419171

 average (electrostatic) potential at core
  the test charge radii are     1.0698
  (the norm of the test charge is              1.0000)
       1 -39.7494       2 -39.7495

 E-fermi :   2.6690     XC(G=0): -10.6870     alpha+bet : -6.3818

 val. band max:        2.6658026138   @ k =  -0.3333   0.3333   0.1667
 cond. band min:       2.6859983227   @ k =   0.0833   0.0000   0.2500
 fundamental gap:      0.0201957089
 Fermi energy:         2.6690018614

 k-point     1 :       0.0000    0.0000    0.0000
  band No.  band energies     occupation
      1      -7.1065      2.00000
      2      -6.8908      2.00000
      3      -6.5738      2.00000
      4      -6.5738      2.00000
      5      -6.5318      2.00000
      6      -6.5318      2.00000
      7      -6.1065      2.00000
      8      -6.1065      2.00000
      9      -5.9010      2.00000
     10      -5.8971      2.00000
     11      -5.8971      2.00000
     12      -0.6167      2.00000
     13      -0.2463      2.00000
     14      12.5072      0.00000
     15      16.5892      0.00000
     16      16.7631      0.00000
     17      16.8176      0.00000
     18      16.8176      0.00000
     19      17.9227      0.00000
     20      18.4190      0.00000
     21      18.4191      0.00000
     22      21.0462      0.00000
     23      21.7833      0.00000
     24      21.7833      0.00000
     25      22.2646      0.00000
     26      22.6191      0.00000
     27      22.6191      0.00000
     28      23.2079      0.00000
     29      23.2080      0.00000
     30      23.8618      0.00000
     31      23.8619      0.00000
     32      24.2316      0.00000
     33      28.4806      0.00000
     34      33.0436      0.00000
     35      34.1369      0.00000
     36      34.1370      0.00000
     37      34.6550      0.00000
     38      34.6551      0.00000
     39      35.2136      0.00000
     40      35.5078      0.00000
     41      35.5078      0.00000
     42      35.9558      0.00000
     43      37.7549      0.00000
     44      37.7549      0.00000
     45      38.2665      0.00000
     46      38.5962      0.00000
     47      46.2999      0.00000
     48      51.1884      0.00000

[...]

 k-point   133 :      -0.3333    0.3333    0.5000
  band No.  band energies     occupation
      1      -6.7052      2.00000
      2      -6.7051      2.00000
      3      -6.5515      2.00000
      4      -6.5514      2.00000
      5      -6.3781      2.00000
      6      -6.3780      2.00000
      7      -6.2957      2.00000
      8      -6.2957      2.00000
      9      -5.9195      2.00000
     10      -5.9195      2.00000
     11       3.5991      0.00000
     12       3.5991      0.00000
     13       3.8626      0.00000
     14       3.8627      0.00000
     15       4.3374      0.00000
     16       4.3375      0.00000
     17      11.9015      0.00000
     18      11.9015      0.00000
     19      14.1239      0.00000
     20      14.1239      0.00000
     21      15.5262      0.00000
     22      15.5262      0.00000
     23      26.2537      0.00000
     24      26.2537      0.00000
     25      26.3232      0.00000
     26      26.3232      0.00000
     27      26.8370      0.00000
     28      26.8370      0.00000
     29      29.8688      0.00000
     30      29.8688      0.00000
     31      30.8208      0.00000
     32      30.8209      0.00000
     33      31.9717      0.00000
     34      31.9717      0.00000
     35      35.2228      0.00000
     36      35.2228      0.00000
     37      35.5614      0.00000
     38      35.5614      0.00000
     39      37.6895      0.00000
     40      37.6895      0.00000
     41      42.7957      0.00000
     42      42.7958      0.00000
     43      45.8838      0.00000
     44      45.8839      0.00000
     45      46.0818      0.00000
     46      46.0819      0.00000
     47      47.1209      0.00000
     48      47.1209      0.00000

 soft charge-density along one line, spin component           1
         0         1         2         3         4         5         6         7         8         9
 total charge-density along one line

------------------------ aborting loop because EDIFF is reached ----------------------------------------

  FORCE on cell =-STRESS in cart. coord.  units (eV):
  Direction    XX          YY          ZZ          XY          YZ          ZX
  Alpha Z   193.16788   193.16788   193.16788
  Ewald    -641.99257  -641.99257  -812.49698    -0.00000     0.00000     0.00000
  Hartree   243.71758   243.71758   144.14118     0.00000     0.00000     0.00000
  E(xc)    -126.61072  -126.61072  -126.91059    -0.00001    -0.00000    -0.00000
  Local     134.25994   134.25968   402.97193     0.00023     0.00001     0.00002
  n-local  -166.29435  -170.58256  -169.18814    -1.18696     0.24615    -0.61957
  augment    65.43238    65.43260    65.70400    -0.00019     0.00000     0.00000
  Kinetic   308.70708   291.53966   302.50189    -5.66907     0.80394    -2.47538
  Fock        0.00000     0.00000     0.00000     0.00000     0.00000     0.00000
  Total      -0.34061    -0.34061    -0.10884    -0.00000    -0.00000    -0.00000
  in kB     -11.83817   -11.83817    -3.78268    -0.00000    -0.00000    -0.00000

 VOLUME and BASIS-vectors are now :
  energy-cutoff  :      356.64
  volume of cell :       46.10
      direct lattice vectors                 reciprocal lattice vectors
     3.037160000  0.000000000  0.000000000     0.329254962 -0.190095441  0.000000000
     1.518580000  2.630257715  0.000000000     0.000000000  0.380190882  0.000000000
     0.000000000  0.000000000  5.770610000    -0.000000000 -0.000000000  0.173291905

  length of vectors
     3.037160000  3.037160000  5.770610000     0.380190882  0.380190882  0.173291905

 FORCES acting on ions
    electron-ion (+dipol)            ewald-force                    non-local-force                 convergence-correction
   -.872E-06 -.503E-06 -.338E-07   0.482E-12 0.272E-12 -.393E-13   -.964E-17 -.155E-17 -.894E-20   0.843E-08 0.486E-08 -.111E-10
   -.742E-06 -.429E-06 -.114E-05   -.485E-12 -.273E-12 0.393E-13   0.683E-17 0.175E-17 0.861E-20   -.835E-08 -.482E-08 0.266E-13
   -.161E-05 -.932E-06 -.118E-05   -.311E-14 -.983E-15 -.118E-16   -.281E-17 0.207E-18 -.333E-21   0.718E-10 0.414E-10 -.111E-10

 POSITION                                       TOTAL-FORCE (eV/Angst)
      0.00000      0.00000      0.00000        -0.000000      0.000000     -0.000000
      1.51858      0.87675      2.88530         0.000000     -0.000000      0.000000
    total drift:                               -0.000002     -0.000001     -0.000001

  FREE ENERGIE OF THE ION-ELECTRON SYSTEM (eV)
  free  energy   TOTEN  =        -1.49450584 eV

  energy  without entropy=       -1.49387759  energy(sigma->0) =       -1.49419171

 writing wavefunctions