 vasp.6.4.3 19Mar24 (build Jun 26 2024 13:02:28) complex

 executed on             LinuxIFC date 2025.08.08  18:14:14

 INCAR:
   ENCUT = 310.9743
   IBRION = -1
   ISMEAR = 0
   ISYM = 2
   LCHARG = True
   LWAVE = True
   SIGMA = 0.05
   SYSTEM = In

 POTCAR:  PAW_PBE In_d 06Sep2000
|           W    W    AA    RRRRR   N    N  II  N    N   GGGG   !!!           |
|           W    W   A  A   R    R  NN   N  II  NN   N  G    G  !!!           |
|           W    W  A    A  R    R  N N  N  II  N N  N  G       !!!           |
|           W WW W  AAAAAA  RRRRR   N  N N  II  N  N N  G  GGG   !            |
|           WW  WW  A    A  R   R   N   NN  II  N   NN  G    G                |
|           W    W  A    A  R    R  N    N  II  N    N   GGGG   !!!           |
|     For optimal performance we recommend to set                             |
|       NCORE = 2 up to number-of-cores-per-socket                            |
|     This setting can greatly improve the performance of VASP for DFT.       |
|     The default, NCORE=1 might be grossly inefficient on modern             |
|     multi-core architectures or massively parallel machines. Do your        |
|     Unfortunately you need to use the default for GW and RPA                |
|     calculations (for HF NCORE is supported but not extensively tested      |
|     yet).                                                                   |

 POTCAR:  PAW_PBE In_d 06Sep2000
   VRHFIN =In: s2p1

   TITEL  = PAW_PBE In_d 06Sep2000
   POMASS =  114.820; ZVAL   =   13.000    mass and valenz
   ENMAX  =  239.211; ENMIN  =  179.409 eV

PAW_PBE In_d 06Sep2000                  :

 POSCAR: In2
  positions in direct lattice

 exchange-correlation table for PE
   RHO(1)=    0.500       N(1)  =     2000
   RHO(2)=  100.500       N(2)  =     4000

 ion  position               nearest neighbor table
   1  0.000  0.000  0.000-   2 3.44   2 3.44   2 3.44   2 3.44   2 3.44   2 3.44   2 3.44   2 3.44

   2  0.500  0.500  0.500-   1 3.44   1 3.44   1 3.44   1 3.44   1 3.44   1 3.44   1 3.44   1 3.44

  LATTYP: Found a simple tetragonal cell.
 ALAT       =     3.2984100000
 C/A-ratio  =     1.5348486089

  Lattice vectors:

 A1 = (   3.2984100000,   0.0000000000,   0.0000000000)
 A2 = (   0.0000000000,   3.2984100000,   0.0000000000)
 A3 = (   0.0000000000,   0.0000000000,   5.0625600000)

Analysis of symmetry for initial positions (statically):
 Subroutine PRICEL returns following result:

  LATTYP: Found a body centered tetragonal cell.
 ALAT       =     3.2984100000
 C/A-ratio  =     1.5348486089

[...]

   2 primitive cells build up your supercell.

 Routine SETGRP: Setting up the symmetry group for a
 simple tetragonal supercell.

 Subroutine GETGRP returns: Found 16 space group operations
 (whereof 16 operations were pure point group operations)
 out of a pool of 16 trial point group operations.

The static configuration has the point symmetry D_4h.

Analysis of symmetry for dynamics (positions and initial velocities):
 Subroutine PRICEL returns following result:

  LATTYP: Found a body centered tetragonal cell.
 ALAT       =     3.2984100000
 C/A-ratio  =     1.5348486089

  Lattice vectors:

 A1 = (   1.6492050000,  -1.6492050000,  -2.5312800000)
 A2 = (  -1.6492050000,   1.6492050000,  -2.5312800000)
 A3 = (   1.6492050000,   1.6492050000,   2.5312800000)

   2 primitive cells build up your supercell.

 Routine SETGRP: Setting up the symmetry group for a
 simple tetragonal supercell.

 Subroutine GETGRP returns: Found 16 space group operations
 (whereof 16 operations were pure point group operations)
 out of a pool of 16 trial point group operations.

The dynamic configuration has the point symmetry D_4h.

 Subroutine INISYM returns: Found 16 space group operations
 (whereof 16 operations are pure point group operations),
 and found     2 'primitive' translations

                                     Primitive cell

  volume of cell :      27.5391

  direct lattice vectors                    reciprocal lattice vectors
     1.649205000 -1.649205000 -2.531280000     0.303176379 -0.000000000 -0.197528523
    -1.649205000  1.649205000 -2.531280000    -0.000000000  0.303176379 -0.197528523
     1.649205000  1.649205000  2.531280000     0.303176379  0.303176379  0.000000000

  length of vectors
     3.441966401  3.441966401  3.441966401     0.361847253  0.361847253  0.428756147

  position of ions in fractional coordinates (direct lattice)
     0.000000000  0.000000000  0.000000000

  ion indices of the primitive-cell ions
   primitive index   ion index
                 1           1

 KPOINTS: Automatic kpoint scheme

Automatic generation of k-mesh.
 Grid dimensions read from file:
 generate k-points for:    8    8    8

 Generating k-lattice:

  Cartesian coordinates                     Fractional coordinates (reciprocal lattice)
     0.037897047 -0.000000000  0.000000000     0.125000000 -0.000000000  0.000000000
     0.000000000  0.037897047  0.000000000     0.000000000  0.125000000  0.000000000
    -0.000000000 -0.000000000  0.024691065    -0.000000000 -0.000000000  0.125000000

  Length of vectors
     0.037897047  0.037897047  0.024691065

  Shift w.r.t. Gamma in fractional coordinates (k-lattice)
     0.000000000  0.000000000  0.000000000

 Subroutine IBZKPT returns following result:

 Found     75 irreducible k-points:

 Following reciprocal coordinates:
            Coordinates               Weight
  0.000000  0.000000  0.000000      1.000000
  0.125000 -0.000000  0.000000      4.000000
  0.250000 -0.000000  0.000000      4.000000
  0.375000 -0.000000  0.000000      4.000000
  0.500000 -0.000000  0.000000      2.000000
  0.125000  0.125000  0.000000      4.000000
  0.250000  0.125000  0.000000      8.000000
  0.375000  0.125000  0.000000      8.000000
  0.500000  0.125000  0.000000      4.000000
  0.250000  0.250000  0.000000      4.000000
  0.375000  0.250000  0.000000      8.000000
  0.500000  0.250000  0.000000      4.000000
  0.375000  0.375000  0.000000      4.000000
  0.500000  0.375000  0.000000      4.000000
  0.500000  0.500000  0.000000      1.000000
  0.000000  0.000000  0.125000      2.000000
  0.125000  0.000000  0.125000      8.000000
  0.250000  0.000000  0.125000      8.000000
  0.375000 -0.000000  0.125000      8.000000
  0.500000 -0.000000  0.125000      4.000000
  0.125000  0.125000  0.125000      8.000000
  0.250000  0.125000  0.125000     16.000000
  0.375000  0.125000  0.125000     16.000000
  0.500000  0.125000  0.125000      8.000000
  0.250000  0.250000  0.125000      8.000000
  0.375000  0.250000  0.125000     16.000000
  0.500000  0.250000  0.125000      8.000000
  0.375000  0.375000  0.125000      8.000000
  0.500000  0.375000  0.125000      8.000000
  0.500000  0.500000  0.125000      2.000000
  0.000000  0.000000  0.250000      2.000000
  0.125000  0.000000  0.250000      8.000000
  0.250000  0.000000  0.250000      8.000000
  0.375000  0.000000  0.250000      8.000000
  0.500000  0.000000  0.250000      4.000000
  0.125000  0.125000  0.250000      8.000000
  0.250000  0.125000  0.250000     16.000000
  0.375000  0.125000  0.250000     16.000000
  0.500000  0.125000  0.250000      8.000000
  0.250000  0.250000  0.250000      8.000000
  0.375000  0.250000  0.250000     16.000000
  0.500000  0.250000  0.250000      8.000000
  0.375000  0.375000  0.250000      8.000000
  0.500000  0.375000  0.250000      8.000000
  0.500000  0.500000  0.250000      2.000000
  0.000000  0.000000  0.375000      2.000000
  0.125000  0.000000  0.375000      8.000000
  0.250000  0.000000  0.375000      8.000000
  0.375000  0.000000  0.375000      8.000000
  0.500000  0.000000  0.375000      4.000000
  0.125000  0.125000  0.375000      8.000000
  0.250000  0.125000  0.375000     16.000000
  0.375000  0.125000  0.375000     16.000000
  0.500000  0.125000  0.375000      8.000000
  0.250000  0.250000  0.375000      8.000000
  0.375000  0.250000  0.375000     16.000000
  0.500000  0.250000  0.375000      8.000000
  0.375000  0.375000  0.375000      8.000000
  0.500000  0.375000  0.375000      8.000000
  0.500000  0.500000  0.375000      2.000000
  0.000000  0.000000  0.500000      1.000000
  0.125000  0.000000  0.500000      4.000000
  0.250000  0.000000  0.500000      4.000000
  0.375000  0.000000  0.500000      4.000000
  0.500000  0.000000  0.500000      2.000000
  0.125000  0.125000  0.500000      4.000000
  0.250000  0.125000  0.500000      8.000000
  0.375000  0.125000  0.500000      8.000000
  0.500000  0.125000  0.500000      4.000000
  0.250000  0.250000  0.500000      4.000000
  0.375000  0.250000  0.500000      8.000000
  0.500000  0.250000  0.500000      4.000000
  0.375000  0.375000  0.500000      4.000000
  0.500000  0.375000  0.500000      4.000000
  0.500000  0.500000  0.500000      1.000000

 Following cartesian coordinates:
            Coordinates               Weight
  0.000000  0.000000  0.000000      1.000000
  0.037897 -0.000000  0.000000      4.000000
  0.075794 -0.000000  0.000000      4.000000
  0.113691 -0.000000  0.000000      4.000000
  0.151588 -0.000000  0.000000      2.000000
  0.037897  0.037897  0.000000      4.000000
  0.075794  0.037897  0.000000      8.000000
  0.113691  0.037897  0.000000      8.000000
  0.151588  0.037897  0.000000      4.000000
  0.075794  0.075794  0.000000      4.000000
  0.113691  0.075794  0.000000      8.000000
  0.151588  0.075794  0.000000      4.000000
  0.113691  0.113691  0.000000      4.000000
  0.151588  0.113691  0.000000      4.000000
  0.151588  0.151588  0.000000      1.000000
 -0.000000 -0.000000  0.024691      2.000000
  0.037897 -0.000000  0.024691      8.000000
  0.075794 -0.000000  0.024691      8.000000
  0.113691 -0.000000  0.024691      8.000000
  0.151588 -0.000000  0.024691      4.000000
  0.037897  0.037897  0.024691      8.000000
  0.075794  0.037897  0.024691     16.000000
  0.113691  0.037897  0.024691     16.000000
  0.151588  0.037897  0.024691      8.000000
  0.075794  0.075794  0.024691      8.000000
  0.113691  0.075794  0.024691     16.000000
  0.151588  0.075794  0.024691      8.000000
  0.113691  0.113691  0.024691      8.000000
  0.151588  0.113691  0.024691      8.000000
  0.151588  0.151588  0.024691      2.000000
 -0.000000 -0.000000  0.049382      2.000000
  0.037897 -0.000000  0.049382      8.000000
  0.075794 -0.000000  0.049382      8.000000
  0.113691 -0.000000  0.049382      8.000000
  0.151588 -0.000000  0.049382      4.000000
  0.037897  0.037897  0.049382      8.000000
  0.075794  0.037897  0.049382     16.000000
  0.113691  0.037897  0.049382     16.000000
  0.151588  0.037897  0.049382      8.000000
  0.075794  0.075794  0.049382      8.000000
  0.113691  0.075794  0.049382     16.000000
  0.151588  0.075794  0.049382      8.000000
  0.113691  0.113691  0.049382      8.000000
  0.151588  0.113691  0.049382      8.000000
  0.151588  0.151588  0.049382      2.000000
 -0.000000 -0.000000  0.074073      2.000000
  0.037897 -0.000000  0.074073      8.000000
  0.075794 -0.000000  0.074073      8.000000
  0.113691 -0.000000  0.074073      8.000000
  0.151588 -0.000000  0.074073      4.000000
  0.037897  0.037897  0.074073      8.000000
[...]
   0.50000000  0.00000000  0.25000000       0.008
   0.12500000  0.12500000  0.25000000       0.016
   0.25000000  0.12500000  0.25000000       0.031
   0.37500000  0.12500000  0.25000000       0.031
   0.50000000  0.12500000  0.25000000       0.016
   0.25000000  0.25000000  0.25000000       0.016
   0.37500000  0.25000000  0.25000000       0.031
   0.50000000  0.25000000  0.25000000       0.016
   0.37500000  0.37500000  0.25000000       0.016
   0.50000000  0.37500000  0.25000000       0.016
   0.50000000  0.50000000  0.25000000       0.004
   0.00000000  0.00000000  0.37500000       0.004
   0.12500000  0.00000000  0.37500000       0.016
   0.25000000  0.00000000  0.37500000       0.016
   0.37500000  0.00000000  0.37500000       0.016
   0.50000000  0.00000000  0.37500000       0.008
   0.12500000  0.12500000  0.37500000       0.016
   0.25000000  0.12500000  0.37500000       0.031
   0.37500000  0.12500000  0.37500000       0.031
   0.50000000  0.12500000  0.37500000       0.016
   0.25000000  0.25000000  0.37500000       0.016
   0.37500000  0.25000000  0.37500000       0.031
   0.50000000  0.25000000  0.37500000       0.016
   0.37500000  0.37500000  0.37500000       0.016
   0.50000000  0.37500000  0.37500000       0.016
   0.50000000  0.50000000  0.37500000       0.004
   0.00000000  0.00000000  0.50000000       0.002
   0.12500000  0.00000000  0.50000000       0.008
   0.25000000  0.00000000  0.50000000       0.008
   0.37500000  0.00000000  0.50000000       0.008
   0.50000000  0.00000000  0.50000000       0.004
   0.12500000  0.12500000  0.50000000       0.008
   0.25000000  0.12500000  0.50000000       0.016
   0.37500000  0.12500000  0.50000000       0.016
   0.50000000  0.12500000  0.50000000       0.008
   0.25000000  0.25000000  0.50000000       0.008
   0.37500000  0.25000000  0.50000000       0.016
   0.50000000  0.25000000  0.50000000       0.008
   0.37500000  0.37500000  0.50000000       0.008
   0.50000000  0.37500000  0.50000000       0.008
   0.50000000  0.50000000  0.50000000       0.002

 position of ions in fractional coordinates (direct lattice)
   0.00000000  0.00000000  0.00000000
   0.50000000  0.50000000  0.50000000

 position of ions in cartesian coordinates  (Angst):
   0.00000000  0.00000000  0.00000000
   1.64920500  1.64920500  2.53128000

 k-point     1 :   0.0000 0.0000 0.0000  plane waves:     683
 k-point     2 :   0.1250-0.0000 0.0000  plane waves:     677
 k-point     3 :   0.2500-0.0000 0.0000  plane waves:     689
 k-point     4 :   0.3750-0.0000 0.0000  plane waves:     692
 k-point     5 :   0.5000-0.0000 0.0000  plane waves:     686
 k-point     6 :   0.1250 0.1250 0.0000  plane waves:     693
 k-point     7 :   0.2500 0.1250 0.0000  plane waves:     689
 k-point     8 :   0.3750 0.1250 0.0000  plane waves:     690
 k-point     9 :   0.5000 0.1250 0.0000  plane waves:     688
 k-point    10 :   0.2500 0.2500 0.0000  plane waves:     689
 k-point    11 :   0.3750 0.2500 0.0000  plane waves:     683
 k-point    12 :   0.5000 0.2500 0.0000  plane waves:     682
 k-point    13 :   0.3750 0.3750 0.0000  plane waves:     682
 k-point    14 :   0.5000 0.3750 0.0000  plane waves:     684
 k-point    15 :   0.5000 0.5000 0.0000  plane waves:     684
 k-point    16 :   0.0000 0.0000 0.1250  plane waves:     687
 k-point    17 :   0.1250 0.0000 0.1250  plane waves:     688
 k-point    18 :   0.2500 0.0000 0.1250  plane waves:     681
 k-point    19 :   0.3750-0.0000 0.1250  plane waves:     683
 k-point    20 :   0.5000-0.0000 0.1250  plane waves:     690
 k-point    21 :   0.1250 0.1250 0.1250  plane waves:     689
 k-point    22 :   0.2500 0.1250 0.1250  plane waves:     689
 k-point    23 :   0.3750 0.1250 0.1250  plane waves:     684
 k-point    24 :   0.5000 0.1250 0.1250  plane waves:     690
 k-point    25 :   0.2500 0.2500 0.1250  plane waves:     684
 k-point    26 :   0.3750 0.2500 0.1250  plane waves:     685
 k-point    27 :   0.5000 0.2500 0.1250  plane waves:     692
 k-point    28 :   0.3750 0.3750 0.1250  plane waves:     688
 k-point    29 :   0.5000 0.3750 0.1250  plane waves:     684
 k-point    30 :   0.5000 0.5000 0.1250  plane waves:     676
 k-point    31 :   0.0000 0.0000 0.2500  plane waves:     691
 k-point    32 :   0.1250 0.0000 0.2500  plane waves:     689
 k-point    33 :   0.2500 0.0000 0.2500  plane waves:     682
 k-point    34 :   0.3750 0.0000 0.2500  plane waves:     686
 k-point    35 :   0.5000 0.0000 0.2500  plane waves:     682
 k-point    36 :   0.1250 0.1250 0.2500  plane waves:     686
 k-point    37 :   0.2500 0.1250 0.2500  plane waves:     680
 k-point    38 :   0.3750 0.1250 0.2500  plane waves:     681
 k-point    39 :   0.5000 0.1250 0.2500  plane waves:     688
 k-point    40 :   0.2500 0.2500 0.2500  plane waves:     688
 k-point    41 :   0.3750 0.2500 0.2500  plane waves:     686
 k-point    42 :   0.5000 0.2500 0.2500  plane waves:     688
 k-point    43 :   0.3750 0.3750 0.2500  plane waves:     689
 k-point    44 :   0.5000 0.3750 0.2500  plane waves:     686
 k-point    45 :   0.5000 0.5000 0.2500  plane waves:     676
 k-point    46 :   0.0000 0.0000 0.3750  plane waves:     698
 k-point    47 :   0.1250 0.0000 0.3750  plane waves:     689
 k-point    48 :   0.2500 0.0000 0.3750  plane waves:     682
 k-point    49 :   0.3750 0.0000 0.3750  plane waves:     679
 k-point    50 :   0.5000 0.0000 0.3750  plane waves:     692
 k-point    51 :   0.1250 0.1250 0.3750  plane waves:     688
 k-point    52 :   0.2500 0.1250 0.3750  plane waves:     683
 k-point    53 :   0.3750 0.1250 0.3750  plane waves:     684
 k-point    54 :   0.5000 0.1250 0.3750  plane waves:     690
 k-point    55 :   0.2500 0.2500 0.3750  plane waves:     681
 k-point    56 :   0.3750 0.2500 0.3750  plane waves:     687
 k-point    57 :   0.5000 0.2500 0.3750  plane waves:     682
 k-point    58 :   0.3750 0.3750 0.3750  plane waves:     691
 k-point    59 :   0.5000 0.3750 0.3750  plane waves:     692
 k-point    60 :   0.5000 0.5000 0.3750  plane waves:     676
 k-point    61 :   0.0000 0.0000 0.5000  plane waves:     686
 k-point    62 :   0.1250 0.0000 0.5000  plane waves:     700
 k-point    63 :   0.2500 0.0000 0.5000  plane waves:     684
 k-point    64 :   0.3750 0.0000 0.5000  plane waves:     686
 k-point    65 :   0.5000 0.0000 0.5000  plane waves:     700
 k-point    66 :   0.1250 0.1250 0.5000  plane waves:     692
 k-point    67 :   0.2500 0.1250 0.5000  plane waves:     674
 k-point    68 :   0.3750 0.1250 0.5000  plane waves:     680
 k-point    69 :   0.5000 0.1250 0.5000  plane waves:     692
 k-point    70 :   0.2500 0.2500 0.5000  plane waves:     680
 k-point    71 :   0.3750 0.2500 0.5000  plane waves:     686
 k-point    72 :   0.5000 0.2500 0.5000  plane waves:     684
 k-point    73 :   0.3750 0.3750 0.5000  plane waves:     698
 k-point    74 :   0.5000 0.3750 0.5000  plane waves:     692
 k-point    75 :   0.5000 0.5000 0.5000  plane waves:     680

 maximum and minimum number of plane-waves per node :       700      674

 maximum number of plane-waves:       700
 maximum index in each direction:
   IXMAX=    4   IYMAX=    4   IZMAX=    7
   IXMIN=   -5   IYMIN=   -5   IZMIN=   -7

 serial   3D FFT for wavefunctions
 parallel 3D FFT for charge:
    minimum data exchange during FFTs selected (reduces bandwidth)

 Broyden mixing: mesh for mixing (old mesh)
   NGX =  9   NGY =  9   NGZ = 15
  (NGX  = 28   NGY  = 28   NGZ  = 48)
  gives a total of   1215 points

 charge density for first step will be calculated from the start-wavefunctions

 Maximum index for augmentation-charges          291 (set IRDMAX)

 initial charge from wavefunction
 First call to EWALD:  gamma=   0.466
 Maximum number of real-space cells 3x 3x 2
 Maximum number of reciprocal cells 2x 2x 3

--------------------------------------- Ionic step        1  -------------------------------------------

--------------------------------------- Iteration      1(   1)  ---------------------------------------

 eigenvalue-minimisations  :  4416
 total energy-change (2. order) :-0.5105877E+01  (-0.7250977E-06)
 number of electron      26.0000269 magnetization
 augmentation part       13.8930110 magnetization

 Broyden mixing:
  rms(total) = 0.30304E-03    rms(broyden)= 0.30304E-03
  rms(prec ) = 0.48506E-03
  weight for this iteration     100.00

 Free energy of the ion-electron system (eV)
  alpha Z        PSCENC =        66.65707008
  Ewald energy   TEWEN  =     -2327.17926251
  -Hartree energ DENC   =      -867.95726548
  -exchange      EXHF   =         0.00000000
  -V(xc)+E(xc)   XCENC  =        82.78944297
  PAW double counting   =      3409.89716136    -3391.94166975
  entropy T*S    EENTRO =        -0.00101090
  eigenvalues    EBANDS =      -130.96542236
  atomic energy  EATOM  =      3153.59507924
  Solvation  Ediel_sol  =         0.00000000
  free energy    TOTEN  =        -5.10587733 eV

  energy without entropy =       -5.10486643  energy(sigma->0) =       -5.10537188

--------------------------------------- Iteration      1(   2)  ---------------------------------------

 eigenvalue-minimisations  :  3888
 total energy-change (2. order) :-0.1055246E-06  (-0.5744072E-07)
 number of electron      26.0000269 magnetization
 augmentation part       13.8930110 magnetization

 Free energy of the ion-electron system (eV)
  alpha Z        PSCENC =        66.65707008
  Ewald energy   TEWEN  =     -2327.17926251
  -Hartree energ DENC   =      -867.96998620
  -exchange      EXHF   =         0.00000000
  -V(xc)+E(xc)   XCENC  =        82.78999741
  PAW double counting   =      3409.74898185    -3391.79372239
  entropy T*S    EENTRO =        -0.00101094
  eigenvalues    EBANDS =      -130.95302399
  atomic energy  EATOM  =      3153.59507924
  Solvation  Ediel_sol  =         0.00000000
  free energy    TOTEN  =        -5.10587744 eV

  energy without entropy =       -5.10486650  energy(sigma->0) =       -5.10537197

 average (electrostatic) potential at core
  the test charge radii are     1.0774
  (the norm of the test charge is              1.0000)
       1 -94.3279       2 -94.3279

 E-fermi :   6.9872     XC(G=0): -10.0110     alpha+bet :-12.2737

 val. band max:        6.9828827573   @ k =   0.2500  -0.0000   0.0000
 cond. band min:       7.0151602022   @ k =   0.2500   0.2500   0.1250
 fundamental gap:      0.0322774450
 Fermi energy:         6.9871539995

 k-point     1 :       0.0000    0.0000    0.0000
  band No.  band energies     occupation
      1      -7.8299      2.00000
      2      -7.7177      2.00000
      3      -7.6843      2.00000
      4      -7.5800      2.00000
      5      -7.5800      2.00000
      6      -7.5224      2.00000
      7      -7.4180      2.00000
      8      -7.3320      2.00000
      9      -7.3082      2.00000
     10      -7.3082      2.00000
     11      -2.2444      2.00000
     12       3.8794      2.00000
     13       4.4241      2.00000
     14      11.6274      0.00000
     15      11.6274      0.00000
     16      14.9400      0.00000
     17      14.9972      0.00000
     18      17.0363      0.00000
     19      17.0363      0.00000
     20      17.1903      0.00000
     21      18.4374      0.00000
     22      20.4731      0.00000
     23      20.6495      0.00000
     24      20.6495      0.00000
     25      21.6925      0.00000
     26      22.4508      0.00000
     27      24.8776      0.00000
     28      25.3920      0.00000
     29      25.3920      0.00000
     30      28.4304      0.00000
     31      29.1011      0.00000
     32      30.3869      0.00000
     33      31.0039      0.00000
     34      31.0039      0.00000
     35      31.1239      0.00000
     36      32.8336      0.00000
     37      32.9159      0.00000
     38      32.9159      0.00000
     39      33.7222      0.00000
     40      33.7222      0.00000
     41      34.7845      0.00000
     42      35.7672      0.00000
     43      36.6290      0.00000
     44      38.0590      0.00000
     45      38.0964      0.00000
     46      38.0964      0.00000
     47      40.7494      0.00000
     48      42.0630      0.00000

[...]

 k-point    75 :       0.5000    0.5000    0.5000
  band No.  band energies     occupation
      1      -7.6446      2.00000
      2      -7.6446      2.00000
      3      -7.5727      2.00000
      4      -7.5727      2.00000
      5      -7.5727      2.00000
      6      -7.5727      2.00000
      7      -7.4176      2.00000
      8      -7.4176      2.00000
      9      -7.2463      2.00000
     10      -7.2463      2.00000
     11       5.5813      2.00000
     12       5.5813      2.00000
     13       6.9554      1.63062
     14       6.9554      1.63062
     15       6.9554      1.63062
     16       6.9554      1.63062
     17       8.7265      0.00000
     18       8.7265      0.00000
     19      18.8296      0.00000
     20      18.8296      0.00000
     21      19.6777      0.00000
     22      19.6777      0.00000
     23      19.6777      0.00000
     24      19.6777      0.00000
     25      21.1532      0.00000
     26      21.1532      0.00000
     27      31.9620      0.00000
     28      31.9620      0.00000
     29      31.9620      0.00000
     30      31.9620      0.00000
     31      33.9564      0.00000
     32      33.9564      0.00000
     33      34.4991      0.00000
     34      34.4991      0.00000
     35      34.4991      0.00000
     36      34.4991      0.00000
     37      34.7437      0.00000
     38      34.7437      0.00000
     39      36.6220      0.00000
     40      36.6220      0.00000
     41      36.8363      0.00000
     42      36.8363      0.00000
     43      40.8942      0.00000
     44      40.8942      0.00000
     45      40.9093      0.00000
     46      40.9093      0.00000
     47      40.9093      0.00000
     48      40.9093      0.00000

 soft charge-density along one line, spin component           1
         0         1         2         3         4         5         6         7         8         9
 total charge-density along one line

------------------------ aborting loop because EDIFF is reached ----------------------------------------

  FORCE on cell =-STRESS in cart. coord.  units (eV):
  Direction    XX          YY          ZZ          XY          YZ          ZX
  Alpha Z    66.65707    66.65707    66.65707
  Ewald    -770.30047  -770.30047  -786.57966     0.00000     0.00000     0.00000
  Hartree   292.35784   292.35784   283.26523    -0.00000    -0.00000    -0.00000
  E(xc)    -131.78030  -131.78030  -131.82385    -0.00000     0.00000     0.00000
  Local     -57.31932   -57.31932   -31.66311    -0.00000    -0.00000    -0.00000
  n-local    87.89071    78.95497    82.80181     0.06388     0.29753    -2.01105
  augment   315.45712   315.45712   315.76685    -0.00000     0.00000     0.00000
  Kinetic   213.20210   189.06382   201.72965     0.25015    -1.45142    -3.39684
  Fock        0.00000     0.00000     0.00000     0.00000     0.00000     0.00000
  Total      -0.37227    -0.37227     0.15398    -0.00000    -0.00000     0.00000
  in kB     -10.82906   -10.82906     4.47919    -0.00000    -0.00000     0.00000

 VOLUME and BASIS-vectors are now :
  energy-cutoff  :      310.97
  volume of cell :       55.08
      direct lattice vectors                 reciprocal lattice vectors
     3.298410000  0.000000000  0.000000000     0.303176379 -0.000000000  0.000000000
     0.000000000  3.298410000  0.000000000     0.000000000  0.303176379  0.000000000
     0.000000000  0.000000000  5.062560000    -0.000000000 -0.000000000  0.197528523

  length of vectors
     3.298410000  3.298410000  5.062560000     0.303176379  0.303176379  0.197528523

 FORCES acting on ions
    electron-ion (+dipol)            ewald-force                    non-local-force                 convergence-correction
   -.162E-13 -.606E-13 -.401E-13   -.100E-13 0.310E-14 -.194E-13   0.300E-24 0.938E-25 0.362E-24   0.138E-14 0.637E-14 0.355E-13
   0.479E-12 -.228E-11 -.639E-12   0.712E-14 -.259E-14 0.193E-13   -.198E-24 -.803E-26 0.674E-24   -.487E-13 -.164E-14 0.872E-15
   0.463E-12 -.234E-11 -.679E-12   -.290E-14 0.515E-15 -.764E-16   0.103E-24 0.858E-25 0.104E-23   -.473E-13 0.473E-14 0.364E-13

 POSITION                                       TOTAL-FORCE (eV/Angst)
      0.00000      0.00000      0.00000        -0.000000      0.000000      0.000000
      1.64921      1.64921      2.53128         0.000000     -0.000000     -0.000000
    total drift:                                0.000000     -0.000000     -0.000000

  FREE ENERGIE OF THE ION-ELECTRON SYSTEM (eV)
  free  energy   TOTEN  =        -5.10587744 eV

  energy  without entropy=       -5.10486650  energy(sigma->0) =       -5.10537197

 writing wavefunctions