 vasp.6.4.3 19Mar24 (build Jun 26 2024 13:02:28) complex

 executed on             LinuxIFC date 2025.08.08  18:41:19

 INCAR:
   ENCUT = 275.0215
   IBRION = -1
   ISMEAR = 0
   ISYM = 2
   LCHARG = True
   LWAVE = True
   SIGMA = 0.05
   SYSTEM = Se

 POTCAR:  PAW_PBE Se 06Sep2000
|           W    W    AA    RRRRR   N    N  II  N    N   GGGG   !!!           |
|           W    W   A  A   R    R  NN   N  II  NN   N  G    G  !!!           |
|           W    W  A    A  R    R  N N  N  II  N N  N  G       !!!           |
|           W WW W  AAAAAA  RRRRR   N  N N  II  N  N N  G  GGG   !            |
|           WW  WW  A    A  R   R   N   NN  II  N   NN  G    G                |
|           W    W  A    A  R    R  N    N  II  N    N   GGGG   !!!           |
|     For optimal performance we recommend to set                             |
|       NCORE = 2 up to number-of-cores-per-socket                            |
|     This setting can greatly improve the performance of VASP for DFT.       |
|     The default, NCORE=1 might be grossly inefficient on modern             |
|     multi-core architectures or massively parallel machines. Do your        |
|     Unfortunately you need to use the default for GW and RPA                |
|     calculations (for HF NCORE is supported but not extensively tested      |
|     yet).                                                                   |

 POTCAR:  PAW_PBE Se 06Sep2000
   VRHFIN =Se: s2p4

   TITEL  = PAW_PBE Se 06Sep2000
   POMASS =   78.960; ZVAL   =    6.000    mass and valenz
   ENMAX  =  211.555; ENMIN  =  158.666 eV

PAW_PBE Se 06Sep2000                    :

 POSCAR: Se3
  positions in direct lattice

 exchange-correlation table for PE
   RHO(1)=    0.500       N(1)  =     2000
   RHO(2)=  100.500       N(2)  =     4000

 ion  position               nearest neighbor table
   1  0.219  0.000  0.333-   2 2.40   3 2.40
   2  0.000  0.219  0.667-   1 2.40   3 2.40
   3  0.781  0.781  0.000-   2 2.40   1 2.40

  LATTYP: Found a hexagonal cell.
 ALAT       =     4.5246400000
 C/A-ratio  =     1.1160622724

  Lattice vectors:

 A1 = (   4.5246400000,   0.0000000000,   0.0000000000)
 A2 = (  -2.2623200000,   3.9184531830,   0.0000000000)
 A3 = (   0.0000000000,   0.0000000000,   5.0497800000)

Analysis of symmetry for initial positions (statically):
 Subroutine PRICEL returns:
 Original cell was already a primitive cell.

 Routine SETGRP: Setting up the symmetry group for a
 hexagonal supercell.

 Subroutine GETGRP returns: Found  6 space group operations
 (whereof  2 operations were pure point group operations)
 out of a pool of 24 trial point group operations.

The static configuration has the point symmetry C_2 .
 The point group associated with its full space group is D_3 .

Analysis of symmetry for dynamics (positions and initial velocities):
 Subroutine PRICEL returns:
 Original cell was already a primitive cell.

 Routine SETGRP: Setting up the symmetry group for a
 hexagonal supercell.

 Subroutine GETGRP returns: Found  6 space group operations
 (whereof  2 operations were pure point group operations)
 out of a pool of 24 trial point group operations.

The dynamic configuration has the point symmetry C_2 .
 The point group associated with its full space group is D_3 .

 Subroutine INISYM returns: Found  6 space group operations
 (whereof  2 operations are pure point group operations),
 and found     1 'primitive' translations

                                     Primitive cell

  volume of cell :      89.5305

  direct lattice vectors                    reciprocal lattice vectors
     4.524640000  0.000000000  0.000000000     0.221012058  0.127601371  0.000000000
    -2.262320000  3.918453183  0.000000000     0.000000000  0.255202743  0.000000000
     0.000000000  0.000000000  5.049780000    -0.000000000 -0.000000000  0.198028429

  length of vectors
     4.524640000  4.524640000  5.049780000     0.255202743  0.255202743  0.198028429

  position of ions in fractional coordinates (direct lattice)
     0.219030000  0.000000000  0.333333333
     0.000000000  0.219030000  0.666666667
     0.780970000  0.780970000  1.000000000

  ion indices of the primitive-cell ions
   primitive index   ion index
                 1           1
                 2           2
                 3           3

 KPOINTS: Automatic kpoint scheme

Automatic generation of k-mesh.
 Grid dimensions read from file:
 generate k-points for:   12   12   12

 Generating k-lattice:

  Cartesian coordinates                     Fractional coordinates (reciprocal lattice)
     0.018417672  0.010633448  0.000000000     0.083333333 -0.000000000  0.000000000
     0.000000000  0.021266895  0.000000000     0.000000000  0.083333333  0.000000000
    -0.000000000 -0.000000000  0.016502369     0.000000000 -0.000000000  0.083333333

  Length of vectors
     0.021266895  0.021266895  0.016502369

  Shift w.r.t. Gamma in fractional coordinates (k-lattice)
     0.000000000  0.000000000  0.000000000

 Subroutine IBZKPT returns following result:

 Found    193 irreducible k-points:

 Following reciprocal coordinates:
            Coordinates               Weight
  0.000000  0.000000  0.000000      1.000000
  0.083333 -0.000000  0.000000      6.000000
  0.166667 -0.000000  0.000000      6.000000
  0.250000  0.000000  0.000000      6.000000
  0.333333  0.000000  0.000000      6.000000
  0.416667 -0.000000  0.000000      6.000000
  0.500000  0.000000  0.000000      3.000000
  0.083333  0.083333  0.000000      6.000000
  0.166667  0.083333  0.000000     12.000000
  0.250000  0.083333  0.000000     12.000000
  0.333333  0.083333  0.000000     12.000000
  0.416667  0.083333  0.000000     12.000000
  0.166667  0.166667  0.000000      6.000000
  0.250000  0.166667  0.000000     12.000000
  0.333333  0.166667  0.000000     12.000000
  0.416667  0.166667  0.000000      6.000000
  0.250000  0.250000  0.000000      6.000000
  0.333333  0.250000  0.000000     12.000000
  0.333333  0.333333  0.000000      2.000000
 -0.000000 -0.000000  0.083333      2.000000
  0.083333 -0.000000  0.083333      6.000000
 -0.000000  0.083333  0.083333      6.000000
  0.166667 -0.000000  0.083333      6.000000
 -0.000000  0.166667  0.083333      6.000000
  0.250000  0.000000  0.083333      6.000000
 -0.000000  0.250000  0.083333      6.000000
  0.333333  0.000000  0.083333      6.000000
 -0.000000  0.333333  0.083333      6.000000
  0.416667 -0.000000  0.083333      6.000000
 -0.000000  0.416667  0.083333      6.000000
  0.500000  0.000000  0.083333      6.000000
  0.083333  0.083333  0.083333     12.000000
  0.166667  0.083333  0.083333     12.000000
 -0.083333  0.250000  0.083333     12.000000
  0.250000  0.083333  0.083333     12.000000
 -0.083333  0.333333  0.083333     12.000000
  0.333333  0.083333  0.083333     12.000000
 -0.083333  0.416667  0.083333     12.000000
  0.416667  0.083333  0.083333     12.000000
 -0.083333  0.500000  0.083333     12.000000
  0.166667  0.166667  0.083333     12.000000
  0.250000  0.166667  0.083333     12.000000
 -0.166667  0.416667  0.083333     12.000000
  0.333333  0.166667  0.083333     12.000000
 -0.166667  0.500000  0.083333     12.000000
  0.416667  0.166667  0.083333     12.000000
  0.250000  0.250000  0.083333     12.000000
  0.333333  0.250000  0.083333     12.000000
 -0.250000 -0.416667  0.083333     12.000000
  0.333333  0.333333  0.083333      4.000000
 -0.000000 -0.000000  0.166667      2.000000
  0.083333  0.000000  0.166667      6.000000
 -0.000000  0.083333  0.166667      6.000000
  0.166667 -0.000000  0.166667      6.000000
 -0.000000  0.166667  0.166667      6.000000
  0.250000 -0.000000  0.166667      6.000000
 -0.000000  0.250000  0.166667      6.000000
  0.333333 -0.000000  0.166667      6.000000
 -0.000000  0.333333  0.166667      6.000000
  0.416667 -0.000000  0.166667      6.000000
[...]
  0.333333 -0.000000  0.500000      6.000000
  0.416667 -0.000000  0.500000      6.000000
  0.500000 -0.000000  0.500000      3.000000
  0.083333  0.083333  0.500000      6.000000
  0.166667  0.083333  0.500000     12.000000
  0.250000  0.083333  0.500000     12.000000
  0.333333  0.083333  0.500000     12.000000
  0.416667  0.083333  0.500000     12.000000
  0.166667  0.166667  0.500000      6.000000
  0.250000  0.166667  0.500000     12.000000
  0.333333  0.166667  0.500000     12.000000
  0.416667  0.166667  0.500000      6.000000
  0.250000  0.250000  0.500000      6.000000
  0.333333  0.250000  0.500000     12.000000
  0.333333  0.333333  0.500000      2.000000

 Following cartesian coordinates:
            Coordinates               Weight
  0.000000  0.000000  0.000000      1.000000
  0.018418  0.010633  0.000000      6.000000
  0.036835  0.021267  0.000000      6.000000
  0.055253  0.031900  0.000000      6.000000
  0.073671  0.042534  0.000000      6.000000
  0.092088  0.053167  0.000000      6.000000
  0.110506  0.063801  0.000000      3.000000
  0.018418  0.031900  0.000000      6.000000
  0.036835  0.042534  0.000000     12.000000
  0.055253  0.053167  0.000000     12.000000
  0.073671  0.063801  0.000000     12.000000
  0.092088  0.074434  0.000000     12.000000
  0.036835  0.063801  0.000000      6.000000
  0.055253  0.074434  0.000000     12.000000
  0.073671  0.085068  0.000000     12.000000
  0.092088  0.095701  0.000000      6.000000
  0.055253  0.095701  0.000000      6.000000
  0.073671  0.106334  0.000000     12.000000
  0.073671  0.127601  0.000000      2.000000
 -0.000000 -0.000000  0.016502      2.000000
  0.018418  0.010633  0.016502      6.000000
 -0.000000  0.021267  0.016502      6.000000
  0.036835  0.021267  0.016502      6.000000
 -0.000000  0.042534  0.016502      6.000000
  0.055253  0.031900  0.016502      6.000000
 -0.000000  0.063801  0.016502      6.000000
  0.073671  0.042534  0.016502      6.000000
 -0.000000  0.085068  0.016502      6.000000
  0.092088  0.053167  0.016502      6.000000
 -0.000000  0.106334  0.016502      6.000000
  0.110506  0.063801  0.016502      6.000000
  0.018418  0.031900  0.016502     12.000000
  0.036835  0.042534  0.016502     12.000000
 -0.018418  0.053167  0.016502     12.000000
  0.055253  0.053167  0.016502     12.000000
 -0.018418  0.074434  0.016502     12.000000
  0.073671  0.063801  0.016502     12.000000
 -0.018418  0.095701  0.016502     12.000000
  0.092088  0.074434  0.016502     12.000000
 -0.018418  0.116968  0.016502     12.000000
  0.036835  0.063801  0.016502     12.000000
  0.055253  0.074434  0.016502     12.000000
 -0.036835  0.085068  0.016502     12.000000
  0.073671  0.085068  0.016502     12.000000
 -0.036835  0.106334  0.016502     12.000000
  0.092088  0.095701  0.016502     12.000000
  0.055253  0.095701  0.016502     12.000000
  0.073671  0.106334  0.016502     12.000000
 -0.055253 -0.138235  0.016502     12.000000
  0.073671  0.127601  0.016502      4.000000
 -0.000000 -0.000000  0.033005      2.000000
  0.018418  0.010633  0.033005      6.000000
 -0.000000  0.021267  0.033005      6.000000
  0.036835  0.021267  0.033005      6.000000
 -0.000000  0.042534  0.033005      6.000000
  0.055253  0.031900  0.033005      6.000000
 -0.000000  0.063801  0.033005      6.000000
[...]
   0.16666667  0.16666667  0.08333333       0.007
   0.25000000  0.16666667  0.08333333       0.007
  -0.16666667  0.41666667  0.08333333       0.007
   0.33333333  0.16666667  0.08333333       0.007
  -0.16666667  0.50000000  0.08333333       0.007
   0.41666667  0.16666667  0.08333333       0.007
   0.25000000  0.25000000  0.08333333       0.007
   0.33333333  0.25000000  0.08333333       0.007
  -0.25000000 -0.41666667  0.08333333       0.007
   0.33333333  0.33333333  0.08333333       0.002
  -0.00000000 -0.00000000  0.16666667       0.001
   0.08333333  0.00000000  0.16666667       0.003
  -0.00000000  0.08333333  0.16666667       0.003
   0.16666667 -0.00000000  0.16666667       0.003
  -0.00000000  0.16666667  0.16666667       0.003
   0.25000000 -0.00000000  0.16666667       0.003
  -0.00000000  0.25000000  0.16666667       0.003
   0.33333333 -0.00000000  0.16666667       0.003
  -0.00000000  0.33333333  0.16666667       0.003
   0.41666667 -0.00000000  0.16666667       0.003
[...]
   0.33333333 -0.00000000  0.50000000       0.003
   0.41666667 -0.00000000  0.50000000       0.003
   0.50000000 -0.00000000  0.50000000       0.002
   0.08333333  0.08333333  0.50000000       0.003
   0.16666667  0.08333333  0.50000000       0.007
   0.25000000  0.08333333  0.50000000       0.007
   0.33333333  0.08333333  0.50000000       0.007
   0.41666667  0.08333333  0.50000000       0.007
   0.16666667  0.16666667  0.50000000       0.003
   0.25000000  0.16666667  0.50000000       0.007
   0.33333333  0.16666667  0.50000000       0.007
   0.41666667  0.16666667  0.50000000       0.003
   0.25000000  0.25000000  0.50000000       0.003
   0.33333333  0.25000000  0.50000000       0.007
   0.33333333  0.33333333  0.50000000       0.001

 position of ions in fractional coordinates (direct lattice)
   0.21903000  0.00000000  0.33333333
   0.00000000  0.21903000  0.66666667
   0.78097000  0.78097000  0.00000000

 position of ions in cartesian coordinates  (Angst):
   0.99103190  0.00000000  1.68326000
  -0.49551595  0.85825880  3.36652000
   1.76680405  3.06019438  0.00000000

 k-point     1 :   0.0000 0.0000 0.0000  plane waves:     925
 k-point     2 :   0.0833-0.0000 0.0000  plane waves:     917
 k-point     3 :   0.1667-0.0000 0.0000  plane waves:     919
 k-point     4 :   0.2500 0.0000 0.0000  plane waves:     919
 k-point     5 :   0.3333 0.0000 0.0000  plane waves:     930
 k-point     6 :   0.4167-0.0000 0.0000  plane waves:     932
 k-point     7 :   0.5000 0.0000 0.0000  plane waves:     920
 k-point     8 :   0.0833 0.0833 0.0000  plane waves:     918
 k-point     9 :   0.1667 0.0833 0.0000  plane waves:     915
 k-point    10 :   0.2500 0.0833 0.0000  plane waves:     925
 k-point    11 :   0.3333 0.0833 0.0000  plane waves:     930
 k-point    12 :   0.4167 0.0833 0.0000  plane waves:     928
 k-point    13 :   0.1667 0.1667 0.0000  plane waves:     922
 k-point    14 :   0.2500 0.1667 0.0000  plane waves:     932
 k-point    15 :   0.3333 0.1667 0.0000  plane waves:     924
 k-point    16 :   0.4167 0.1667 0.0000  plane waves:     926
 k-point    17 :   0.2500 0.2500 0.0000  plane waves:     936
 k-point    18 :   0.3333 0.2500 0.0000  plane waves:     940
 k-point    19 :   0.3333 0.3333 0.0000  plane waves:     954
 k-point    20 :  -0.0000-0.0000 0.0833  plane waves:     913
 k-point    21 :   0.0833-0.0000 0.0833  plane waves:     920
 k-point    22 :  -0.0000 0.0833 0.0833  plane waves:     920
 k-point    23 :   0.1667-0.0000 0.0833  plane waves:     917
 k-point    24 :  -0.0000 0.1667 0.0833  plane waves:     917
 k-point    25 :   0.2500 0.0000 0.0833  plane waves:     916
 k-point    26 :  -0.0000 0.2500 0.0833  plane waves:     916
 k-point    27 :   0.3333 0.0000 0.0833  plane waves:     930
 k-point    28 :  -0.0000 0.3333 0.0833  plane waves:     930
 k-point    29 :   0.4167-0.0000 0.0833  plane waves:     933
 k-point    30 :  -0.0000 0.4167 0.0833  plane waves:     933
 k-point    31 :   0.5000 0.0000 0.0833  plane waves:     930
 k-point    32 :   0.0833 0.0833 0.0833  plane waves:     918
 k-point    33 :   0.1667 0.0833 0.0833  plane waves:     916
 k-point    34 :  -0.0833 0.2500 0.0833  plane waves:     916
 k-point    35 :   0.2500 0.0833 0.0833  plane waves:     922
 k-point    36 :  -0.0833 0.3333 0.0833  plane waves:     922
 k-point    37 :   0.3333 0.0833 0.0833  plane waves:     925
 k-point    38 :  -0.0833 0.4167 0.0833  plane waves:     925
 k-point    39 :   0.4167 0.0833 0.0833  plane waves:     923
 k-point    40 :  -0.0833 0.5000 0.0833  plane waves:     923
 k-point    41 :   0.1667 0.1667 0.0833  plane waves:     916
 k-point    42 :   0.2500 0.1667 0.0833  plane waves:     931
 k-point    43 :  -0.1667 0.4167 0.0833  plane waves:     931
 k-point    44 :   0.3333 0.1667 0.0833  plane waves:     932
 k-point    45 :  -0.1667 0.5000 0.0833  plane waves:     932
 k-point    46 :   0.4167 0.1667 0.0833  plane waves:     931
 k-point    47 :   0.2500 0.2500 0.0833  plane waves:     941
 k-point    48 :   0.3333 0.2500 0.0833  plane waves:     939
 k-point    49 :  -0.2500-0.4167 0.0833  plane waves:     939
 k-point    50 :   0.3333 0.3333 0.0833  plane waves:     948
 k-point    51 :  -0.0000-0.0000 0.1667  plane waves:     937
 k-point    52 :   0.0833 0.0000 0.1667  plane waves:     922
 k-point    53 :  -0.0000 0.0833 0.1667  plane waves:     922
 k-point    54 :   0.1667-0.0000 0.1667  plane waves:     917
 k-point    55 :  -0.0000 0.1667 0.1667  plane waves:     917
 k-point    56 :   0.2500-0.0000 0.1667  plane waves:     921
 k-point    57 :  -0.0000 0.2500 0.1667  plane waves:     921
 k-point    58 :   0.3333-0.0000 0.1667  plane waves:     926
 k-point    59 :  -0.0000 0.3333 0.1667  plane waves:     926
 k-point    60 :   0.4167-0.0000 0.1667  plane waves:     923
[...]
 k-point   179 :   0.3333-0.0000 0.5000  plane waves:     924
 k-point   180 :   0.4167-0.0000 0.5000  plane waves:     934
 k-point   181 :   0.5000-0.0000 0.5000  plane waves:     952
 k-point   182 :   0.0833 0.0833 0.5000  plane waves:     928
 k-point   183 :   0.1667 0.0833 0.5000  plane waves:     924
 k-point   184 :   0.2500 0.0833 0.5000  plane waves:     924
 k-point   185 :   0.3333 0.0833 0.5000  plane waves:     928
 k-point   186 :   0.4167 0.0833 0.5000  plane waves:     936
 k-point   187 :   0.1667 0.1667 0.5000  plane waves:     926
 k-point   188 :   0.2500 0.1667 0.5000  plane waves:     926
 k-point   189 :   0.3333 0.1667 0.5000  plane waves:     928
 k-point   190 :   0.4167 0.1667 0.5000  plane waves:     940
 k-point   191 :   0.2500 0.2500 0.5000  plane waves:     936
 k-point   192 :   0.3333 0.2500 0.5000  plane waves:     936
 k-point   193 :   0.3333 0.3333 0.5000  plane waves:     930

 maximum and minimum number of plane-waves per node :       954      890

 maximum number of plane-waves:       954
 maximum index in each direction:
   IXMAX=    6   IYMAX=    6   IZMAX=    6
   IXMIN=   -6   IYMIN=   -6   IZMIN=   -7

 serial   3D FFT for wavefunctions
 parallel 3D FFT for charge:
    minimum data exchange during FFTs selected (reduces bandwidth)

 Broyden mixing: mesh for mixing (old mesh)
   NGX = 13   NGY = 13   NGZ = 13
  (NGX  = 36   NGY  = 36   NGZ  = 40)
  gives a total of   2197 points

 charge density for first step will be calculated from the start-wavefunctions

 Maximum index for augmentation-charges          231 (set IRDMAX)

 initial charge from wavefunction
 First call to EWALD:  gamma=   0.396
 Maximum number of real-space cells 3x 3x 2
 Maximum number of reciprocal cells 3x 3x 3

--------------------------------------- Ionic step        1  -------------------------------------------

--------------------------------------- Iteration      1(   1)  ---------------------------------------

 eigenvalue-minimisations  : 12912
 total energy-change (2. order) :-0.1049222E+02  (-0.8314988E-06)
 number of electron      18.0000035 magnetization
 augmentation part       -3.4130447 magnetization

 Broyden mixing:
  rms(total) = 0.17321E-03    rms(broyden)= 0.16872E-03
  rms(prec ) = 0.37083E-03
  weight for this iteration     100.00

 Free energy of the ion-electron system (eV)
  alpha Z        PSCENC =        35.05468027
  Ewald energy   TEWEN  =      -674.31800800
  -Hartree energ DENC   =      -104.94282330
  -exchange      EXHF   =         0.00000000
  -V(xc)+E(xc)   XCENC  =        -2.13998662
  PAW double counting   =       988.07765781     -946.91317694
  entropy T*S    EENTRO =        -0.00000000
  eigenvalues    EBANDS =       -76.68347355
  atomic energy  EATOM  =       771.37291404
  Solvation  Ediel_sol  =         0.00000000
  free energy    TOTEN  =       -10.49221628 eV

  energy without entropy =      -10.49221628  energy(sigma->0) =      -10.49221628

--------------------------------------- Iteration      1(   2)  ---------------------------------------

 eigenvalue-minimisations  : 10032
 total energy-change (2. order) : 0.8881841E-07  (-0.3421631E-07)
 number of electron      18.0000035 magnetization
 augmentation part       -3.4130447 magnetization

 Free energy of the ion-electron system (eV)
  alpha Z        PSCENC =        35.05468027
  Ewald energy   TEWEN  =      -674.31800800
  -Hartree energ DENC   =      -104.94040147
  -exchange      EXHF   =         0.00000000
  -V(xc)+E(xc)   XCENC  =        -2.14004981
  PAW double counting   =       988.09042296     -946.92591130
  entropy T*S    EENTRO =        -0.00000000
  eigenvalues    EBANDS =       -76.68586288
  atomic energy  EATOM  =       771.37291404
  Solvation  Ediel_sol  =         0.00000000
  free energy    TOTEN  =       -10.49221619 eV

  energy without entropy =      -10.49221619  energy(sigma->0) =      -10.49221619

 average (electrostatic) potential at core
  the test charge radii are     1.0808
  (the norm of the test charge is              1.0000)
       1 -56.8554       2 -56.8554       3 -56.8554

 E-fermi :   2.1425     XC(G=0):  -8.4206     alpha+bet : -7.1948

 val. band max:        1.8196974463   @ k =   0.5000  -0.0000   0.5000
 cond. band min:       2.8183120447   @ k =   0.3333   0.3333   0.5000
 fundamental gap:      0.9986145984
 Fermi energy:         2.1425096116

 k-point     1 :       0.0000    0.0000    0.0000
  band No.  band energies     occupation
      1     -13.5414      2.00000
      2      -9.7397      2.00000
      3      -9.7397      2.00000
      4      -1.9027      2.00000
      5      -1.9027      2.00000
      6      -1.5994      2.00000
      7      -0.0162      2.00000
      8      -0.0162      2.00000
      9       1.5143      2.00000
     10       3.7255      0.00000
     11       3.7255      0.00000
     12       4.0960      0.00000
     13       7.6995      0.00000
     14       8.4724      0.00000
     15       8.4724      0.00000
     16      10.2578      0.00000
     17      10.5584      0.00000
     18      10.6798      0.00000
     19      10.6798      0.00000
     20      13.1201      0.00000
     21      13.1201      0.00000
     22      15.4571      0.00000
     23      15.4571      0.00000
     24      19.9816      0.00000
     25      19.9816      0.00000
     26      20.2612      0.00000
     27      20.4788      0.00000
     28      21.2607      0.00000
     29      21.8928      0.00000
     30      21.8929      0.00000
     31      22.7391      0.00000
     32      22.7391      0.00000
     33      24.0953      0.00000
     34      24.0953      0.00000
     35      24.6259      0.00000
     36      24.7414      0.00000
     37      25.0837      0.00000
     38      25.0837      0.00000
     39      25.4382      0.00000
     40      27.0123      0.00000
     41      27.0123      0.00000
     42      27.1586      0.00000
     43      28.0156      0.00000
     44      28.0157      0.00000
     45      28.5325      0.00000
     46      28.5325      0.00000
     47      29.3057      0.00000
     48      29.3058      0.00000

[...]

 k-point   193 :       0.3333    0.3333    0.5000
  band No.  band energies     occupation
      1     -12.1615      2.00000
      2     -12.1615      2.00000
      3      -8.5950      2.00000
      4      -3.5168      2.00000
      5      -2.6497      2.00000
      6      -2.6497      2.00000
      7       0.9541      2.00000
      8       1.6020      2.00000
      9       1.6020      2.00000
     10       2.8183      0.00000
     11       4.5307      0.00000
     12       4.5307      0.00000
     13       8.4722      0.00000
     14       9.6607      0.00000
     15      10.4047      0.00000
     16      10.4047      0.00000
     17      11.9850      0.00000
     18      11.9850      0.00000
     19      13.6541      0.00000
     20      14.6132      0.00000
     21      14.6132      0.00000
     22      15.0847      0.00000
     23      15.4548      0.00000
     24      15.4548      0.00000
     25      17.3128      0.00000
     26      17.3128      0.00000
     27      18.9336      0.00000
     28      19.2662      0.00000
     29      19.4036      0.00000
     30      19.4036      0.00000
     31      20.8499      0.00000
     32      21.1407      0.00000
     33      21.1408      0.00000
     34      21.5781      0.00000
     35      22.6336      0.00000
     36      22.6336      0.00000
     37      24.2534      0.00000
     38      24.2534      0.00000
     39      26.5667      0.00000
     40      27.4271      0.00000
     41      27.6987      0.00000
     42      27.6987      0.00000
     43      28.3014      0.00000
     44      28.6434      0.00000
     45      28.8592      0.00000
     46      28.8594      0.00000
     47      31.2868      0.00000
     48      31.2868      0.00000

 soft charge-density along one line, spin component           1
         0         1         2         3         4         5         6         7         8         9
 total charge-density along one line

------------------------ aborting loop because EDIFF is reached ----------------------------------------

  FORCE on cell =-STRESS in cart. coord.  units (eV):
  Direction    XX          YY          ZZ          XY          YZ          ZX
  Alpha Z    35.05468    35.05468    35.05468
  Ewald    -259.20675  -259.20675  -155.90515    -0.00000     0.00000    -0.00000
  Hartree    21.81429    21.81428    61.30832    -0.00000     0.00001    -0.00001
  E(xc)     -66.12643   -66.12647   -65.55351    -0.00004    -0.00000    -0.00000
  Local     -57.37707   -57.37842  -186.13988    -0.00114    -0.00024    -0.00010
  n-local   125.77333   126.14795   124.83048     0.08234    -0.25956    -0.37814
  augment   -13.29806   -13.29748   -12.00366     0.00050    -0.00013     0.00028
  Kinetic   213.49647   212.76732   198.35746    -2.96312    -0.16803     0.74736
  Fock        0.00000     0.00000     0.00000     0.00000     0.00000     0.00000
  Total      -0.04721    -0.04721    -0.05126     0.00000    -0.00000     0.00000
  in kB      -0.84484    -0.84484    -0.91736     0.00000    -0.00000     0.00000

 VOLUME and BASIS-vectors are now :
  energy-cutoff  :      275.02
  volume of cell :       89.53
      direct lattice vectors                 reciprocal lattice vectors
     4.524640000  0.000000000  0.000000000     0.221012058  0.127601371  0.000000000
    -2.262320000  3.918453183  0.000000000     0.000000000  0.255202743  0.000000000
     0.000000000  0.000000000  5.049780000    -0.000000000 -0.000000000  0.198028429

  length of vectors
     4.524640000  4.524640000  5.049780000     0.255202743  0.255202743  0.198028429

 FORCES acting on ions
    electron-ion (+dipol)            ewald-force                    non-local-force                 convergence-correction
   -.485E+02 0.970E-06 0.335E-04   0.529E+02 -.255E-11 -.597E-11   -.438E+01 -.341E-16 -.286E-15   -.144E-02 -.336E-08 0.476E-09
   0.242E+02 -.420E+02 -.359E-04   -.264E+02 0.458E+02 0.598E-11   0.219E+01 -.380E+01 -.289E-15   0.719E-03 -.125E-02 -.434E-09
   0.242E+02 0.420E+02 0.337E-05   -.264E+02 -.458E+02 -.710E-14   0.219E+01 0.380E+01 0.638E-15   0.719E-03 0.125E-02 -.404E-10
   -.168E-04 -.264E-04 0.106E-05   0.000E+00 0.000E+00 0.323E-17   0.000E+00 0.000E+00 0.627E-16   0.958E-09 0.182E-08 0.125E-11

 POSITION                                       TOTAL-FORCE (eV/Angst)
      0.99103      0.00000      1.68326        -0.004948     -0.000000     -0.000000
     -0.49552      0.85826      3.36652         0.002474     -0.004285     -0.000000
      1.76680      3.06019      0.00000         0.002474      0.004285      0.000000
    total drift:                               -0.000017     -0.000026      0.000001

  FREE ENERGIE OF THE ION-ELECTRON SYSTEM (eV)
  free  energy   TOTEN  =       -10.49221619 eV

  energy  without entropy=      -10.49221619  energy(sigma->0) =      -10.49221619

 writing wavefunctions