 vasp.6.4.3 19Mar24 (build Jun 26 2024 13:02:28) complex

 executed on             LinuxIFC date 2025.08.08  19:03:21

 INCAR:
   ENCUT = 318.9485
   IBRION = -1
   ISMEAR = 0
   ISYM = 2
   LCHARG = True
   LWAVE = True
   SIGMA = 0.05
   SYSTEM = Si

 POTCAR:  PAW_PBE Si 05Jan2001
|           W    W    AA    RRRRR   N    N  II  N    N   GGGG   !!!           |
|           W    W   A  A   R    R  NN   N  II  NN   N  G    G  !!!           |
|           W    W  A    A  R    R  N N  N  II  N N  N  G       !!!           |
|           W WW W  AAAAAA  RRRRR   N  N N  II  N  N N  G  GGG   !            |
|           WW  WW  A    A  R   R   N   NN  II  N   NN  G    G                |
|           W    W  A    A  R    R  N    N  II  N    N   GGGG   !!!           |
|     For optimal performance we recommend to set                             |
|       NCORE = 2 up to number-of-cores-per-socket                            |
|     This setting can greatly improve the performance of VASP for DFT.       |
|     The default, NCORE=1 might be grossly inefficient on modern             |
|     multi-core architectures or massively parallel machines. Do your        |
|     Unfortunately you need to use the default for GW and RPA                |
|     calculations (for HF NCORE is supported but not extensively tested      |
|     yet).                                                                   |

 POTCAR:  PAW_PBE Si 05Jan2001
   VRHFIN =Si: s2p2

   TITEL  = PAW_PBE Si 05Jan2001
   POMASS =   28.085; ZVAL   =    4.000    mass and valenz
   ENMAX  =  245.345; ENMIN  =  184.009 eV

PAW_PBE Si 05Jan2001                    :

 POSCAR: Si2
  positions in direct lattice

 exchange-correlation table for PE
   RHO(1)=    0.500       N(1)  =     2000
   RHO(2)=  100.500       N(2)  =     4000

 ion  position               nearest neighbor table
   1  0.000  0.000  0.000-   2 2.37   2 2.37   2 2.37   2 2.37
   2  0.250  0.250  0.250-   1 2.37   1 2.37   1 2.37   1 2.37

  LATTYP: Found a face centered cubic cell.
 ALAT       =     5.4688911249

  Lattice vectors:

 A1 = (   3.3489981787,   0.0000000000,   1.9335450000)
 A2 = (   1.1163327262,   3.1574657631,   1.9335450000)
 A3 = (   0.0000000000,   0.0000000000,   3.8670900000)

Analysis of symmetry for initial positions (statically):
 Subroutine PRICEL returns:
 Original cell was already a primitive cell.

 Routine SETGRP: Setting up the symmetry group for a
 face centered cubic supercell.

 Subroutine GETGRP returns: Found 48 space group operations
 (whereof 24 operations were pure point group operations)
 out of a pool of 48 trial point group operations.

The static configuration has the point symmetry T_d .
 The point group associated with its full space group is O_h .

Analysis of symmetry for dynamics (positions and initial velocities):
 Subroutine PRICEL returns:
 Original cell was already a primitive cell.

 Routine SETGRP: Setting up the symmetry group for a
 face centered cubic supercell.

 Subroutine GETGRP returns: Found 48 space group operations
 (whereof 24 operations were pure point group operations)
 out of a pool of 48 trial point group operations.

The dynamic configuration has the point symmetry T_d .
 The point group associated with its full space group is O_h .

 Subroutine INISYM returns: Found 48 space group operations
 (whereof 24 operations are pure point group operations),
 and found     1 'primitive' translations

                                     Primitive cell

  volume of cell :      40.8920

  direct lattice vectors                    reciprocal lattice vectors
     3.348998179  0.000000000  1.933545000     0.298596758 -0.105569896  0.000000000
     1.116332726  3.157465763  1.933545000     0.000000000  0.316709689  0.000000000
     0.000000000  0.000000000  3.867090000    -0.149298379 -0.105569896  0.258592378

  length of vectors
     3.867090000  3.867090000  3.867090000     0.316709689  0.316709689  0.316709689

  position of ions in fractional coordinates (direct lattice)
     0.000000000  0.000000000  0.000000000
     0.250000000  0.250000000  0.250000000

  ion indices of the primitive-cell ions
   primitive index   ion index
                 1           1
                 2           2

 KPOINTS: Automatic kpoint scheme

Automatic generation of k-mesh.
 Grid dimensions read from file:
 generate k-points for:    8    8    8

 Generating k-lattice:

  Cartesian coordinates                     Fractional coordinates (reciprocal lattice)
     0.037324595 -0.013196237  0.000000000     0.125000000 -0.000000000  0.000000000
     0.000000000  0.039588711  0.000000000     0.000000000  0.125000000  0.000000000
    -0.018662297 -0.013196237  0.032324047    -0.000000000 -0.000000000  0.125000000

  Length of vectors
     0.039588711  0.039588711  0.039588711

  Shift w.r.t. Gamma in fractional coordinates (k-lattice)
     0.000000000  0.000000000  0.000000000

 Subroutine IBZKPT returns following result:

 Found     29 irreducible k-points:

 Following reciprocal coordinates:
            Coordinates               Weight
  0.000000  0.000000  0.000000      1.000000
  0.125000 -0.000000  0.000000      8.000000
  0.250000 -0.000000  0.000000      8.000000
  0.375000 -0.000000  0.000000      8.000000
  0.500000 -0.000000  0.000000      4.000000
  0.125000  0.125000  0.000000      6.000000
  0.250000  0.125000  0.000000     24.000000
  0.375000  0.125000  0.000000     24.000000
  0.500000  0.125000  0.000000     24.000000
 -0.375000  0.125000  0.000000     24.000000
 -0.250000  0.125000  0.000000     24.000000
 -0.125000  0.125000  0.000000     12.000000
  0.250000  0.250000  0.000000      6.000000
  0.375000  0.250000  0.000000     24.000000
  0.500000  0.250000  0.000000     24.000000
 -0.375000  0.250000  0.000000     24.000000
 -0.250000  0.250000  0.000000     12.000000
  0.375000  0.375000  0.000000      6.000000
  0.500000  0.375000  0.000000     24.000000
 -0.375000  0.375000  0.000000     12.000000
  0.500000  0.500000  0.000000      3.000000
  0.375000  0.250000  0.125000     24.000000
  0.500000  0.250000  0.125000     48.000000
 -0.375000  0.250000  0.125000     24.000000
  0.500000  0.375000  0.125000     24.000000
 -0.375000  0.375000  0.125000     48.000000
 -0.250000  0.375000  0.125000     24.000000
 -0.375000  0.500000  0.125000     12.000000
 -0.250000  0.500000  0.250000      6.000000

 Following cartesian coordinates:
            Coordinates               Weight
  0.000000  0.000000  0.000000      1.000000
  0.037325 -0.013196  0.000000      8.000000
  0.074649 -0.026392  0.000000      8.000000
  0.111974 -0.039589  0.000000      8.000000
  0.149298 -0.052785  0.000000      4.000000
  0.037325  0.026392  0.000000      6.000000
  0.074649  0.013196  0.000000     24.000000
  0.111974 -0.000000  0.000000     24.000000
  0.149298 -0.013196  0.000000     24.000000
 -0.111974  0.079177  0.000000     24.000000
 -0.074649  0.065981  0.000000     24.000000
 -0.037325  0.052785  0.000000     12.000000
  0.074649  0.052785  0.000000      6.000000
  0.111974  0.039589  0.000000     24.000000
  0.149298  0.026392  0.000000     24.000000
 -0.111974  0.118766  0.000000     24.000000
 -0.074649  0.105570  0.000000     12.000000
  0.111974  0.079177  0.000000      6.000000
  0.149298  0.065981  0.000000     24.000000
 -0.111974  0.158355  0.000000     12.000000
  0.149298  0.105570  0.000000      3.000000
  0.093311  0.026392  0.032324     24.000000
  0.130636  0.013196  0.032324     48.000000
 -0.130636  0.105570  0.032324     24.000000
  0.130636  0.052785  0.032324     24.000000
 -0.130636  0.145159  0.032324     48.000000
 -0.093311  0.131962  0.032324     24.000000
 -0.130636  0.184747  0.032324     12.000000
 -0.111974  0.158355  0.064648      6.000000

 Subroutine IBZKPT_HF returns following result:

 Found    512 k-points in 1st BZ
 the following    512 k-points will be used (e.g. in the exchange kernel)
 Following reciprocal coordinates:   # in IRBZ
  0.000000  0.000000  0.000000    0.00195312   1 t-inv F
  0.125000 -0.000000  0.000000    0.00195312   2 t-inv F
  0.250000 -0.000000  0.000000    0.00195312   3 t-inv F
  0.375000 -0.000000  0.000000    0.00195312   4 t-inv F
  0.500000 -0.000000  0.000000    0.00195312   5 t-inv F
  0.125000  0.125000  0.000000    0.00195312   6 t-inv F
  0.250000  0.125000  0.000000    0.00195312   7 t-inv F
  0.375000  0.125000  0.000000    0.00195312   8 t-inv F
  0.500000  0.125000  0.000000    0.00195312   9 t-inv F
 -0.375000  0.125000  0.000000    0.00195312  10 t-inv F
 -0.250000  0.125000  0.000000    0.00195312  11 t-inv F
 -0.125000  0.125000  0.000000    0.00195312  12 t-inv F
  0.250000  0.250000  0.000000    0.00195312  13 t-inv F
  0.375000  0.250000  0.000000    0.00195312  14 t-inv F
  0.500000  0.250000  0.000000    0.00195312  15 t-inv F
 -0.375000  0.250000  0.000000    0.00195312  16 t-inv F
 -0.250000  0.250000  0.000000    0.00195312  17 t-inv F
  0.375000  0.375000  0.000000    0.00195312  18 t-inv F
  0.500000  0.375000  0.000000    0.00195312  19 t-inv F
 -0.375000  0.375000  0.000000    0.00195312  20 t-inv F
  0.500000  0.500000  0.000000    0.00195312  21 t-inv F
  0.375000  0.250000  0.125000    0.00195312  22 t-inv F
  0.500000  0.250000  0.125000    0.00195312  23 t-inv F
 -0.375000  0.250000  0.125000    0.00195312  24 t-inv F
  0.500000  0.375000  0.125000    0.00195312  25 t-inv F
 -0.375000  0.375000  0.125000    0.00195312  26 t-inv F
 -0.250000  0.375000  0.125000    0.00195312  27 t-inv F
 -0.375000  0.500000  0.125000    0.00195312  28 t-inv F
 -0.250000  0.500000  0.250000    0.00195312  29 t-inv F
  0.000000  0.125000 -0.000000    0.00195312   2 t-inv F
 -0.000000  0.000000  0.125000    0.00195312   2 t-inv F
 -0.125000 -0.125000 -0.125000    0.00195312   2 t-inv F
 -0.125000  0.000000  0.000000    0.00195312   2 t-inv F
  0.000000 -0.125000  0.000000    0.00195312   2 t-inv F
  0.000000  0.000000 -0.125000    0.00195312   2 t-inv F
  0.125000  0.125000  0.125000    0.00195312   2 t-inv F
  0.000000  0.250000 -0.000000    0.00195312   3 t-inv F
 -0.000000  0.000000  0.250000    0.00195312   3 t-inv F
 -0.250000 -0.250000 -0.250000    0.00195312   3 t-inv F
 -0.250000  0.000000  0.000000    0.00195312   3 t-inv F
  0.000000 -0.250000  0.000000    0.00195312   3 t-inv F
  0.000000  0.000000 -0.250000    0.00195312   3 t-inv F
  0.250000  0.250000  0.250000    0.00195312   3 t-inv F
  0.000000  0.375000 -0.000000    0.00195312   4 t-inv F
 -0.000000  0.000000  0.375000    0.00195312   4 t-inv F
 -0.375000 -0.375000 -0.375000    0.00195312   4 t-inv F
 -0.375000  0.000000  0.000000    0.00195312   4 t-inv F
  0.000000 -0.375000  0.000000    0.00195312   4 t-inv F
  0.000000  0.000000 -0.375000    0.00195312   4 t-inv F
  0.375000  0.375000  0.375000    0.00195312   4 t-inv F
  0.000000  0.500000 -0.000000    0.00195312   5 t-inv F
 -0.000000  0.000000  0.500000    0.00195312   5 t-inv F
 -0.500000 -0.500000 -0.500000    0.00195312   5 t-inv F
  0.000000  0.125000  0.125000    0.00195312   6 t-inv F
  0.125000  0.000000  0.125000    0.00195312   6 t-inv F
 -0.125000 -0.125000  0.000000    0.00195312   6 t-inv F
[...]
   LBONE     =     F  B-component reconstruction in AE one-centre
   LVGVCALC  =     T  calculate vGv susceptibility
   LVGVAPPL  =     F  apply vGv susceptibility instead of pGv for G=0

 Random number generation:
   RANDOM_GENERATOR = DEFAULT
   PCG_SEED         = not used

 Static calculation
 charge density and potential will be updated during run
 non-spin polarized calculation
 Variant of blocked Davidson
 Davidson routine will perform the subspace rotation
 perform sub-space diagonalisation
    after iterative eigenvector-optimisation
 modified Broyden-mixing scheme, WC =      100.0
 initial mixing is a Kerker type mixing with AMIX =  0.4000 and BMIX =      1.0000
 Hartree-type preconditioning will be used
 using additional bands           44
 reciprocal scheme for non local part
 use partial core corrections
 calculate Harris-corrections to forces
   (improved forces if not selfconsistent)
 use gradient corrections
 use of overlap-Matrix (Vanderbilt PP)
 Gauss-broadening in eV      SIGMA  =   0.05

  energy-cutoff  :      318.95
  volume of cell :       40.89
      direct lattice vectors                 reciprocal lattice vectors
     3.348998179  0.000000000  1.933545000     0.298596758 -0.105569896  0.000000000
     1.116332726  3.157465763  1.933545000     0.000000000  0.316709689  0.000000000
     0.000000000  0.000000000  3.867090000    -0.149298379 -0.105569896  0.258592378

[...]

 old parameters found on file WAVECAR:
  energy-cutoff  :      318.95
  volume of cell :       40.89
      direct lattice vectors                 reciprocal lattice vectors
     3.348998179  0.000000000  1.933545000     0.298596758 -0.105569896  0.000000000
     1.116332726  3.157465763  1.933545000     0.000000000  0.316709689  0.000000000
     0.000000000  0.000000000  3.867090000    -0.149298379 -0.105569896  0.258592378

  length of vectors

 k-points in units of 2pi/SCALE and weight: Automatic kpoint scheme
   0.00000000  0.00000000  0.00000000       0.002
   0.03732459 -0.01319624  0.00000000       0.016
   0.07464919 -0.02639247  0.00000000       0.016
   0.11197378 -0.03958871  0.00000000       0.016
   0.14929838 -0.05278495  0.00000000       0.008
   0.03732459  0.02639247  0.00000000       0.012
   0.07464919  0.01319624  0.00000000       0.047
   0.11197378 -0.00000000  0.00000000       0.047
   0.14929838 -0.01319624  0.00000000       0.047
  -0.11197378  0.07917742  0.00000000       0.047
  -0.07464919  0.06598119  0.00000000       0.047
  -0.03732459  0.05278495  0.00000000       0.023
   0.07464919  0.05278495  0.00000000       0.012
   0.11197378  0.03958871  0.00000000       0.047
   0.14929838  0.02639247  0.00000000       0.047
  -0.11197378  0.11876613  0.00000000       0.047
  -0.07464919  0.10556990  0.00000000       0.023
   0.11197378  0.07917742  0.00000000       0.012
   0.14929838  0.06598119  0.00000000       0.047
  -0.11197378  0.15835484  0.00000000       0.023
   0.14929838  0.10556990  0.00000000       0.006
   0.09331149  0.02639247  0.03232405       0.047
   0.13063608  0.01319624  0.03232405       0.094
  -0.13063608  0.10556990  0.03232405       0.047
   0.13063608  0.05278495  0.03232405       0.047
  -0.13063608  0.14515861  0.03232405       0.094
  -0.09331149  0.13196237  0.03232405       0.047
  -0.13063608  0.18474732  0.03232405       0.023
  -0.11197378  0.15835484  0.06464809       0.012

 k-points in reciprocal lattice and weights: Automatic kpoint scheme
   0.00000000  0.00000000  0.00000000       0.002
   0.12500000 -0.00000000  0.00000000       0.016
   0.25000000 -0.00000000  0.00000000       0.016
   0.37500000 -0.00000000  0.00000000       0.016
   0.50000000 -0.00000000  0.00000000       0.008
   0.12500000  0.12500000  0.00000000       0.012
   0.25000000  0.12500000  0.00000000       0.047
   0.37500000  0.12500000  0.00000000       0.047
   0.50000000  0.12500000  0.00000000       0.047
  -0.37500000  0.12500000  0.00000000       0.047
  -0.25000000  0.12500000  0.00000000       0.047
  -0.12500000  0.12500000  0.00000000       0.023
   0.25000000  0.25000000  0.00000000       0.012
   0.37500000  0.25000000  0.00000000       0.047
   0.50000000  0.25000000  0.00000000       0.047
  -0.37500000  0.25000000  0.00000000       0.047
  -0.25000000  0.25000000  0.00000000       0.023
   0.37500000  0.37500000  0.00000000       0.012
   0.50000000  0.37500000  0.00000000       0.047
  -0.37500000  0.37500000  0.00000000       0.023
   0.50000000  0.50000000  0.00000000       0.006
   0.37500000  0.25000000  0.12500000       0.047
   0.50000000  0.25000000  0.12500000       0.094
  -0.37500000  0.25000000  0.12500000       0.047
   0.50000000  0.37500000  0.12500000       0.047
  -0.37500000  0.37500000  0.12500000       0.094
  -0.25000000  0.37500000  0.12500000       0.047
  -0.37500000  0.50000000  0.12500000       0.023
  -0.25000000  0.50000000  0.25000000       0.012

 position of ions in fractional coordinates (direct lattice)
   0.00000000  0.00000000  0.00000000
   0.25000000  0.25000000  0.25000000

 position of ions in cartesian coordinates  (Angst):
   0.00000000  0.00000000  0.00000000
   1.11633273  0.78936644  1.93354500

 k-point     1 :   0.0000 0.0000 0.0000  plane waves:     531
 k-point     2 :   0.1250-0.0000 0.0000  plane waves:     534
 k-point     3 :   0.2500-0.0000 0.0000  plane waves:     531
 k-point     4 :   0.3750-0.0000 0.0000  plane waves:     528
 k-point     5 :   0.5000-0.0000 0.0000  plane waves:     544
 k-point     6 :   0.1250 0.1250 0.0000  plane waves:     532
 k-point     7 :   0.2500 0.1250 0.0000  plane waves:     531
 k-point     8 :   0.3750 0.1250 0.0000  plane waves:     537
 k-point     9 :   0.5000 0.1250 0.0000  plane waves:     530
 k-point    10 :  -0.3750 0.1250 0.0000  plane waves:     528
 k-point    11 :  -0.2500 0.1250 0.0000  plane waves:     531
 k-point    12 :  -0.1250 0.1250 0.0000  plane waves:     537
 k-point    13 :   0.2500 0.2500 0.0000  plane waves:     528
 k-point    14 :   0.3750 0.2500 0.0000  plane waves:     528
 k-point    15 :   0.5000 0.2500 0.0000  plane waves:     529
 k-point    16 :  -0.3750 0.2500 0.0000  plane waves:     526
 k-point    17 :  -0.2500 0.2500 0.0000  plane waves:     524
 k-point    18 :   0.3750 0.3750 0.0000  plane waves:     528
 k-point    19 :   0.5000 0.3750 0.0000  plane waves:     523
 k-point    20 :  -0.3750 0.3750 0.0000  plane waves:     526
 k-point    21 :   0.5000 0.5000 0.0000  plane waves:     524
 k-point    22 :   0.3750 0.2500 0.1250  plane waves:     535
 k-point    23 :   0.5000 0.2500 0.1250  plane waves:     528
 k-point    24 :  -0.3750 0.2500 0.1250  plane waves:     530
 k-point    25 :   0.5000 0.3750 0.1250  plane waves:     522
 k-point    26 :  -0.3750 0.3750 0.1250  plane waves:     522
 k-point    27 :  -0.2500 0.3750 0.1250  plane waves:     525
 k-point    28 :  -0.3750 0.5000 0.1250  plane waves:     518
 k-point    29 :  -0.2500 0.5000 0.2500  plane waves:     524

 maximum and minimum number of plane-waves per node :       544      518

 maximum number of plane-waves:       544
 maximum index in each direction:
   IXMAX=    5   IYMAX=    5   IZMAX=    5
   IXMIN=   -6   IYMIN=   -6   IZMIN=   -5

 serial   3D FFT for wavefunctions
 parallel 3D FFT for charge:
    minimum data exchange during FFTs selected (reduces bandwidth)

 Broyden mixing: mesh for mixing (old mesh)
   NGX = 11   NGY = 11   NGZ = 11
  (NGX  = 36   NGY  = 36   NGZ  = 36)
  gives a total of   1331 points

 charge density for first step will be calculated from the start-wavefunctions

 Maximum index for augmentation-charges          313 (set IRDMAX)

 initial charge from wavefunction
 First call to EWALD:  gamma=   0.514
 Maximum number of real-space cells 3x 3x 3
 Maximum number of reciprocal cells 3x 3x 3

--------------------------------------- Ionic step        1  -------------------------------------------

--------------------------------------- Iteration      1(   1)  ---------------------------------------

 eigenvalue-minimisations  :  1440
 total energy-change (2. order) :-0.1084198E+02  (-0.1027630E-06)
 number of electron       7.9999992 magnetization
 augmentation part       -0.4579617 magnetization

 Broyden mixing:
  rms(total) = 0.74960E-04    rms(broyden)= 0.74960E-04
  rms(prec ) = 0.96146E-04
  weight for this iteration     100.00

 Free energy of the ion-electron system (eV)
  alpha Z        PSCENC =         3.29288569
  Ewald energy   TEWEN  =      -226.93813280
  -Hartree energ DENC   =       -15.18321176
  -exchange      EXHF   =         0.00000000
  -V(xc)+E(xc)   XCENC  =       -18.05688859
  PAW double counting   =       854.88318322     -819.90382248
  entropy T*S    EENTRO =        -0.00000000
  eigenvalues    EBANDS =         4.93337956
  atomic energy  EATOM  =       206.13062786
  Solvation  Ediel_sol  =         0.00000000
  free energy    TOTEN  =       -10.84197931 eV

  energy without entropy =      -10.84197931  energy(sigma->0) =      -10.84197931

--------------------------------------- Iteration      1(   2)  ---------------------------------------

 eigenvalue-minimisations  :  1392
 total energy-change (2. order) : 0.7301821E-09  (-0.6188293E-09)
 number of electron       7.9999992 magnetization
 augmentation part       -0.4579617 magnetization

 Free energy of the ion-electron system (eV)
  alpha Z        PSCENC =         3.29288569
  Ewald energy   TEWEN  =      -226.93813280
  -Hartree energ DENC   =       -15.18320965
  -exchange      EXHF   =         0.00000000
  -V(xc)+E(xc)   XCENC  =       -18.05688051
  PAW double counting   =       854.93884217     -819.95947336
  entropy T*S    EENTRO =        -0.00000000
  eigenvalues    EBANDS =         4.93336129
  atomic energy  EATOM  =       206.13062786
  Solvation  Ediel_sol  =         0.00000000
  free energy    TOTEN  =       -10.84197931 eV

  energy without entropy =      -10.84197931  energy(sigma->0) =      -10.84197931

 average (electrostatic) potential at core
  the test charge radii are     0.9892
  (the norm of the test charge is              1.0000)
       1 -83.4814       2 -83.4814

 E-fermi :   5.8933     XC(G=0):  -9.3263     alpha+bet :-11.7307

 val. band max:        5.6179711887   @ k =   0.0000   0.0000   0.0000
 cond. band min:       6.2696717881   @ k =   0.3750   0.3750   0.0000
 fundamental gap:      0.6517005993
 Fermi energy:         5.8932853740

 k-point     1 :       0.0000    0.0000    0.0000
  band No.  band energies     occupation
      1      -6.1978      2.00000
      2       5.6180      2.00000
      3       5.6180      2.00000
      4       5.6180      2.00000
      5       8.1761      0.00000
      6       8.1761      0.00000
      7       8.1761      0.00000
      8       8.7495      0.00000
      9      13.3423      0.00000
     10      13.3423      0.00000
     11      13.4942      0.00000
     12      16.8027      0.00000
     13      16.8027      0.00000
     14      16.8027      0.00000
     15      20.8907      0.00000
     16      28.5081      0.00000
     17      28.5081      0.00000
     18      28.5081      0.00000
     19      29.6166      0.00000
     20      29.6166      0.00000
     21      31.0219      0.00000
     22      31.0219      0.00000
     23      31.0219      0.00000
     24      34.5382      0.00000
     25      34.5382      0.00000
     26      34.5382      0.00000
     27      40.2228      0.00000
     28      40.2228      0.00000
     29      40.2228      0.00000
     30      43.4201      0.00000
     31      43.9905      0.00000
     32      43.9905      0.00000
     33      45.8312      0.00000
     34      45.8312      0.00000
     35      47.2885      0.00000
     36      47.2885      0.00000
     37      47.2885      0.00000
     38      49.0447      0.00000
     39      49.0447      0.00000
     40      49.0447      0.00000
     41      49.5401      0.00000
     42      50.1077      0.00000
     43      50.1077      0.00000
     44      50.1077      0.00000
     45      50.1121      0.00000
     46      50.1121      0.00000
     47      50.1121      0.00000
     48      51.5188      0.00000

[...]

 k-point    29 :      -0.2500    0.5000    0.2500
  band No.  band energies     occupation
      1      -1.9746      2.00000
      2      -1.9746      2.00000
      3       1.8561      2.00000
      4       1.8561      2.00000
      5       9.8922      0.00000
      6       9.8923      0.00000
      7      10.5521      0.00000
      8      10.5521      0.00000
      9      16.0804      0.00000
     10      16.0804      0.00000
     11      18.4998      0.00000
     12      18.4998      0.00000
     13      21.9336      0.00000
     14      21.9337      0.00000
     15      24.0252      0.00000
     16      24.0252      0.00000
     17      24.3036      0.00000
     18      24.3037      0.00000
     19      25.2327      0.00000
     20      25.2327      0.00000
     21      29.0602      0.00000
     22      29.0602      0.00000
     23      32.8444      0.00000
     24      32.8444      0.00000
     25      32.9821      0.00000
     26      32.9822      0.00000
     27      34.7014      0.00000
     28      34.7014      0.00000
     29      38.0485      0.00000
     30      38.0486      0.00000
     31      42.0034      0.00000
     32      42.0034      0.00000
     33      43.2198      0.00000
     34      43.2199      0.00000
     35      45.4086      0.00000
     36      45.4087      0.00000
     37      48.3897      0.00000
     38      48.3897      0.00000
     39      49.5670      0.00000
     40      49.5671      0.00000
     41      52.3954      0.00000
     42      52.3954      0.00000
     43      53.6131      0.00000
     44      53.6131      0.00000
     45      53.8095      0.00000
     46      53.8095      0.00000
     47      56.6355      0.00000
     48      56.6355      0.00000

 soft charge-density along one line, spin component           1
         0         1         2         3         4         5         6         7         8         9
 total charge-density along one line

------------------------ aborting loop because EDIFF is reached ----------------------------------------

  FORCE on cell =-STRESS in cart. coord.  units (eV):
  Direction    XX          YY          ZZ          XY          YZ          ZX
  Alpha Z     3.29289     3.29289     3.29289
  Ewald     -75.64608   -75.64608   -75.64608    -0.00000    -0.00000    -0.00000
  Hartree     5.06108     5.06108     5.06108     0.00000     0.00000     0.00000
  E(xc)     -25.25255   -25.25255   -25.25255    -0.00000    -0.00000    -0.00000
  Local     -29.55445   -29.55446   -29.55440     0.00002     0.00003     0.00004
  n-local    73.83372    77.17623    81.39574    -0.94220    -0.70941    -0.01031
  augment   -11.63818   -11.63817   -11.63822    -0.00001    -0.00002    -0.00003
  Kinetic    53.00797    55.07066    60.65715     0.82757     1.03569    -0.53821
  Fock        0.00000     0.00000     0.00000     0.00000     0.00000     0.00000
  Total      -0.02345    -0.02345    -0.02345     0.00000    -0.00000     0.00000
  in kB      -0.91888    -0.91888    -0.91888     0.00000    -0.00000     0.00000

 VOLUME and BASIS-vectors are now :
  energy-cutoff  :      318.95
  volume of cell :       40.89
      direct lattice vectors                 reciprocal lattice vectors
     3.348998179  0.000000000  1.933545000     0.298596758 -0.105569896  0.000000000
     1.116332726  3.157465763  1.933545000     0.000000000  0.316709689  0.000000000
     0.000000000  0.000000000  3.867090000    -0.149298379 -0.105569896  0.258592378

  length of vectors
     3.867090000  3.867090000  3.867090000     0.316709689  0.316709689  0.316709689

 FORCES acting on ions
    electron-ion (+dipol)            ewald-force                    non-local-force                 convergence-correction
   0.143E-05 0.101E-05 0.250E-05   0.864E-14 0.560E-14 0.114E-13   0.672E-16 0.560E-16 -.220E-16   0.262E-09 0.185E-09 0.454E-09
   -.143E-05 -.101E-05 -.250E-05   -.912E-14 -.558E-14 -.115E-13   -.655E-16 -.507E-16 0.150E-16   -.262E-09 -.185E-09 -.454E-09
   -.296E-13 -.108E-13 -.534E-13   -.483E-15 0.184E-16 -.128E-15   0.167E-17 0.531E-17 -.697E-17   0.175E-14 -.371E-15 -.529E-15

 POSITION                                       TOTAL-FORCE (eV/Angst)
      0.00000      0.00000      0.00000        -0.000000      0.000000     -0.000000
      1.11633      0.78937      1.93355         0.000000     -0.000000      0.000000
    total drift:                               -0.000000     -0.000000     -0.000000

  FREE ENERGIE OF THE ION-ELECTRON SYSTEM (eV)
  free  energy   TOTEN  =       -10.84197931 eV

  energy  without entropy=      -10.84197931  energy(sigma->0) =      -10.84197931

 writing wavefunctions