 vasp.6.4.3 19Mar24 (build Jun 26 2024 13:02:28) complex

 executed on             LinuxIFC date 2025.08.08  19:02:37

 INCAR:
   ENCUT = 312.39000000000004
   IBRION = -1
   ISMEAR = 0
   ISYM = 2
   LCHARG = True
   LWAVE = True
   SIGMA = 0.05
   SYSTEM = Al

 POTCAR:  PAW_PBE Al 04Jan2001
|           W    W    AA    RRRRR   N    N  II  N    N   GGGG   !!!           |
|           W    W   A  A   R    R  NN   N  II  NN   N  G    G  !!!           |
|           W    W  A    A  R    R  N N  N  II  N N  N  G       !!!           |
|           W WW W  AAAAAA  RRRRR   N  N N  II  N  N N  G  GGG   !            |
|           WW  WW  A    A  R   R   N   NN  II  N   NN  G    G                |
|           W    W  A    A  R    R  N    N  II  N    N   GGGG   !!!           |
|     For optimal performance we recommend to set                             |
|       NCORE = 2 up to number-of-cores-per-socket                            |
|     This setting can greatly improve the performance of VASP for DFT.       |
|     The default, NCORE=1 might be grossly inefficient on modern             |
|     multi-core architectures or massively parallel machines. Do your        |
|     Unfortunately you need to use the default for GW and RPA                |
|     calculations (for HF NCORE is supported but not extensively tested      |
|     yet).                                                                   |

 POTCAR:  PAW_PBE Al 04Jan2001
   VRHFIN =Al: s2p1

   TITEL  = PAW_PBE Al 04Jan2001
   POMASS =   26.981; ZVAL   =    3.000    mass and valenz
   ENMAX  =  240.300; ENMIN  =  180.225 eV

PAW_PBE Al 04Jan2001                    :

 POSCAR: Al4
  positions in direct lattice

 exchange-correlation table for PE
   RHO(1)=    0.500       N(1)  =     2000
   RHO(2)=  100.500       N(2)  =     4000

 ion  position               nearest neighbor table
   1  0.000  0.000  0.000-   4 2.86   4 2.86   2 2.86   3 2.86   2 2.86   2 2.86   2 2.86   3 2.86
                             3 2.86   3 2.86   4 2.86   4 2.86
   2  0.000  0.500  0.500-   3 2.86   3 2.86   1 2.86   4 2.86   1 2.86   1 2.86   1 2.86   4 2.86
                             4 2.86   4 2.86   3 2.86   3 2.86
   3  0.500  0.000  0.500-   2 2.86   2 2.86   1 2.86   4 2.86   1 2.86   4 2.86   4 2.86   1 2.86
                             4 2.86   1 2.86   2 2.86   2 2.86
   4  0.500  0.500  0.000-   1 2.86   1 2.86   2 2.86   3 2.86   2 2.86   3 2.86   3 2.86   3 2.86
                             2 2.86   2 2.86   1 2.86   1 2.86

  LATTYP: Found a simple cubic cell.
 ALAT       =     4.0402100000

  Lattice vectors:

 A1 = (   4.0402100000,   0.0000000000,   0.0000000000)
 A2 = (   0.0000000000,   4.0402100000,   0.0000000000)
 A3 = (   0.0000000000,   0.0000000000,   4.0402100000)

Analysis of symmetry for initial positions (statically):
 Subroutine PRICEL returns following result:

  LATTYP: Found a face centered cubic cell.
 ALAT       =     4.0402100000

[...]

   4 primitive cells build up your supercell.

 Routine SETGRP: Setting up the symmetry group for a
 simple cubic supercell.

 Subroutine GETGRP returns: Found 48 space group operations
 (whereof 48 operations were pure point group operations)
 out of a pool of 48 trial point group operations.

The static configuration has the point symmetry O_h .

Analysis of symmetry for dynamics (positions and initial velocities):
 Subroutine PRICEL returns following result:

  LATTYP: Found a face centered cubic cell.
 ALAT       =     4.0402100000

  Lattice vectors:

 A1 = (   2.0201050000,  -2.0201050000,   0.0000000000)
 A2 = (   2.0201050000,   0.0000000000,   2.0201050000)
 A3 = (   0.0000000000,  -2.0201050000,   2.0201050000)

   4 primitive cells build up your supercell.

 Routine SETGRP: Setting up the symmetry group for a
 simple cubic supercell.

 Subroutine GETGRP returns: Found 48 space group operations
 (whereof 48 operations were pure point group operations)
 out of a pool of 48 trial point group operations.

The dynamic configuration has the point symmetry O_h .

 Subroutine INISYM returns: Found 48 space group operations
 (whereof 48 operations are pure point group operations),
 and found     4 'primitive' translations

                                     Primitive cell

  volume of cell :      16.4874

  direct lattice vectors                    reciprocal lattice vectors
     2.020105000 -2.020105000  0.000000000     0.247511887 -0.247511887 -0.247511887
     2.020105000  0.000000000  2.020105000     0.247511887  0.247511887  0.247511887
     0.000000000 -2.020105000  2.020105000    -0.247511887 -0.247511887  0.247511887

  length of vectors
     2.856859888  2.856859888  2.856859888     0.428703163  0.428703163  0.428703163

  position of ions in fractional coordinates (direct lattice)
     0.000000000  0.000000000  0.000000000

  ion indices of the primitive-cell ions
   primitive index   ion index
                 1           1

 KPOINTS: Automatic kpoint scheme

Automatic generation of k-mesh.
 Grid dimensions read from file:
 generate k-points for:    8    8    8

 Generating k-lattice:

  Cartesian coordinates                     Fractional coordinates (reciprocal lattice)
     0.030938986 -0.000000000  0.000000000     0.125000000  0.000000000  0.000000000
     0.000000000  0.030938986  0.000000000     0.000000000  0.125000000  0.000000000
    -0.000000000 -0.000000000  0.030938986    -0.000000000 -0.000000000  0.125000000

  Length of vectors
     0.030938986  0.030938986  0.030938986

  Shift w.r.t. Gamma in fractional coordinates (k-lattice)
     0.000000000  0.000000000  0.000000000

 Subroutine IBZKPT returns following result:

 Found     35 irreducible k-points:

 Following reciprocal coordinates:
            Coordinates               Weight
  0.000000  0.000000  0.000000      1.000000
  0.125000  0.000000  0.000000      6.000000
  0.250000  0.000000  0.000000      6.000000
  0.375000  0.000000  0.000000      6.000000
  0.500000  0.000000  0.000000      3.000000
  0.125000  0.125000  0.000000     12.000000
  0.250000  0.125000  0.000000     24.000000
  0.375000  0.125000  0.000000     24.000000
  0.500000  0.125000  0.000000     12.000000
  0.250000  0.250000  0.000000     12.000000
  0.375000  0.250000  0.000000     24.000000
  0.500000  0.250000  0.000000     12.000000
  0.375000  0.375000  0.000000     12.000000
  0.500000  0.375000  0.000000     12.000000
  0.500000  0.500000  0.000000      3.000000
  0.125000  0.125000  0.125000      8.000000
  0.250000  0.125000  0.125000     24.000000
  0.375000  0.125000  0.125000     24.000000
  0.500000  0.125000  0.125000     12.000000
  0.250000  0.250000  0.125000     24.000000
  0.375000  0.250000  0.125000     48.000000
  0.500000  0.250000  0.125000     24.000000
  0.375000  0.375000  0.125000     24.000000
  0.500000  0.375000  0.125000     24.000000
  0.500000  0.500000  0.125000      6.000000
  0.250000  0.250000  0.250000      8.000000
  0.375000  0.250000  0.250000     24.000000
  0.500000  0.250000  0.250000     12.000000
  0.375000  0.375000  0.250000     24.000000
  0.500000  0.375000  0.250000     24.000000
  0.500000  0.500000  0.250000      6.000000
  0.375000  0.375000  0.375000      8.000000
  0.500000  0.375000  0.375000     12.000000
  0.500000  0.500000  0.375000      6.000000
  0.500000  0.500000  0.500000      1.000000

 Following cartesian coordinates:
            Coordinates               Weight
  0.000000  0.000000  0.000000      1.000000
  0.030939 -0.000000  0.000000      6.000000
  0.061878 -0.000000  0.000000      6.000000
  0.092817 -0.000000  0.000000      6.000000
  0.123756 -0.000000  0.000000      3.000000
  0.030939  0.030939  0.000000     12.000000
  0.061878  0.030939  0.000000     24.000000
  0.092817  0.030939  0.000000     24.000000
  0.123756  0.030939  0.000000     12.000000
  0.061878  0.061878  0.000000     12.000000
  0.092817  0.061878  0.000000     24.000000
  0.123756  0.061878  0.000000     12.000000
  0.092817  0.092817  0.000000     12.000000
  0.123756  0.092817  0.000000     12.000000
  0.123756  0.123756  0.000000      3.000000
  0.030939  0.030939  0.030939      8.000000
  0.061878  0.030939  0.030939     24.000000
  0.092817  0.030939  0.030939     24.000000
  0.123756  0.030939  0.030939     12.000000
  0.061878  0.061878  0.030939     24.000000
  0.092817  0.061878  0.030939     48.000000
  0.123756  0.061878  0.030939     24.000000
  0.092817  0.092817  0.030939     24.000000
  0.123756  0.092817  0.030939     24.000000
  0.123756  0.123756  0.030939      6.000000
  0.061878  0.061878  0.061878      8.000000
  0.092817  0.061878  0.061878     24.000000
  0.123756  0.061878  0.061878     12.000000
  0.092817  0.092817  0.061878     24.000000
  0.123756  0.092817  0.061878     24.000000
  0.123756  0.123756  0.061878      6.000000
  0.092817  0.092817  0.092817      8.000000
  0.123756  0.092817  0.092817     12.000000
  0.123756  0.123756  0.092817      6.000000
  0.123756  0.123756  0.123756      1.000000

 Subroutine IBZKPT_HF returns following result:

 Found    512 k-points in 1st BZ
 the following    512 k-points will be used (e.g. in the exchange kernel)
 Following reciprocal coordinates:   # in IRBZ
  0.000000  0.000000  0.000000    0.00195312   1 t-inv F
  0.125000  0.000000  0.000000    0.00195312   2 t-inv F
  0.250000  0.000000  0.000000    0.00195312   3 t-inv F
  0.375000  0.000000  0.000000    0.00195312   4 t-inv F
  0.500000  0.000000  0.000000    0.00195312   5 t-inv F
  0.125000  0.125000  0.000000    0.00195312   6 t-inv F
  0.250000  0.125000  0.000000    0.00195312   7 t-inv F
  0.375000  0.125000  0.000000    0.00195312   8 t-inv F
  0.500000  0.125000  0.000000    0.00195312   9 t-inv F
  0.250000  0.250000  0.000000    0.00195312  10 t-inv F
  0.375000  0.250000  0.000000    0.00195312  11 t-inv F
  0.500000  0.250000  0.000000    0.00195312  12 t-inv F
  0.375000  0.375000  0.000000    0.00195312  13 t-inv F
  0.500000  0.375000  0.000000    0.00195312  14 t-inv F
  0.500000  0.500000  0.000000    0.00195312  15 t-inv F
  0.125000  0.125000  0.125000    0.00195312  16 t-inv F
  0.250000  0.125000  0.125000    0.00195312  17 t-inv F
  0.375000  0.125000  0.125000    0.00195312  18 t-inv F
  0.500000  0.125000  0.125000    0.00195312  19 t-inv F
  0.250000  0.250000  0.125000    0.00195312  20 t-inv F
  0.375000  0.250000  0.125000    0.00195312  21 t-inv F
  0.500000  0.250000  0.125000    0.00195312  22 t-inv F
  0.375000  0.375000  0.125000    0.00195312  23 t-inv F
  0.500000  0.375000  0.125000    0.00195312  24 t-inv F
  0.500000  0.500000  0.125000    0.00195312  25 t-inv F
  0.250000  0.250000  0.250000    0.00195312  26 t-inv F
  0.375000  0.250000  0.250000    0.00195312  27 t-inv F
  0.500000  0.250000  0.250000    0.00195312  28 t-inv F
  0.375000  0.375000  0.250000    0.00195312  29 t-inv F
  0.500000  0.375000  0.250000    0.00195312  30 t-inv F
  0.500000  0.500000  0.250000    0.00195312  31 t-inv F
  0.375000  0.375000  0.375000    0.00195312  32 t-inv F
  0.500000  0.375000  0.375000    0.00195312  33 t-inv F
  0.500000  0.500000  0.375000    0.00195312  34 t-inv F
  0.500000  0.500000  0.500000    0.00195312  35 t-inv F
[...]
     4.040210000  0.000000000  0.000000000     0.247511887 -0.000000000  0.000000000
     0.000000000  4.040210000  0.000000000     0.000000000  0.247511887  0.000000000
     0.000000000  0.000000000  4.040210000    -0.000000000 -0.000000000  0.247511887

  length of vectors

 k-points in units of 2pi/SCALE and weight: Automatic kpoint scheme
   0.00000000  0.00000000  0.00000000       0.002
   0.03093899 -0.00000000  0.00000000       0.012
   0.06187797 -0.00000000  0.00000000       0.012
   0.09281696 -0.00000000  0.00000000       0.012
   0.12375594 -0.00000000  0.00000000       0.006
   0.03093899  0.03093899  0.00000000       0.023
   0.06187797  0.03093899  0.00000000       0.047
   0.09281696  0.03093899  0.00000000       0.047
   0.12375594  0.03093899  0.00000000       0.023
   0.06187797  0.06187797  0.00000000       0.023
   0.09281696  0.06187797  0.00000000       0.047
   0.12375594  0.06187797  0.00000000       0.023
   0.09281696  0.09281696  0.00000000       0.023
   0.12375594  0.09281696  0.00000000       0.023
   0.12375594  0.12375594  0.00000000       0.006
   0.03093899  0.03093899  0.03093899       0.016
   0.06187797  0.03093899  0.03093899       0.047
   0.09281696  0.03093899  0.03093899       0.047
   0.12375594  0.03093899  0.03093899       0.023
   0.06187797  0.06187797  0.03093899       0.047
   0.09281696  0.06187797  0.03093899       0.094
   0.12375594  0.06187797  0.03093899       0.047
   0.09281696  0.09281696  0.03093899       0.047
   0.12375594  0.09281696  0.03093899       0.047
   0.12375594  0.12375594  0.03093899       0.012
   0.06187797  0.06187797  0.06187797       0.016
   0.09281696  0.06187797  0.06187797       0.047
   0.12375594  0.06187797  0.06187797       0.023
   0.09281696  0.09281696  0.06187797       0.047
   0.12375594  0.09281696  0.06187797       0.047
   0.12375594  0.12375594  0.06187797       0.012
   0.09281696  0.09281696  0.09281696       0.016
   0.12375594  0.09281696  0.09281696       0.023
   0.12375594  0.12375594  0.09281696       0.012
   0.12375594  0.12375594  0.12375594       0.002

 k-points in reciprocal lattice and weights: Automatic kpoint scheme
   0.00000000  0.00000000  0.00000000       0.002
   0.12500000  0.00000000  0.00000000       0.012
   0.25000000  0.00000000  0.00000000       0.012
   0.37500000  0.00000000  0.00000000       0.012
   0.50000000  0.00000000  0.00000000       0.006
   0.12500000  0.12500000  0.00000000       0.023
   0.25000000  0.12500000  0.00000000       0.047
   0.37500000  0.12500000  0.00000000       0.047
   0.50000000  0.12500000  0.00000000       0.023
   0.25000000  0.25000000  0.00000000       0.023
   0.37500000  0.25000000  0.00000000       0.047
   0.50000000  0.25000000  0.00000000       0.023
   0.37500000  0.37500000  0.00000000       0.023
   0.50000000  0.37500000  0.00000000       0.023
   0.50000000  0.50000000  0.00000000       0.006
   0.12500000  0.12500000  0.12500000       0.016
   0.25000000  0.12500000  0.12500000       0.047
   0.37500000  0.12500000  0.12500000       0.047
   0.50000000  0.12500000  0.12500000       0.023
   0.25000000  0.25000000  0.12500000       0.047
   0.37500000  0.25000000  0.12500000       0.094
   0.50000000  0.25000000  0.12500000       0.047
   0.37500000  0.37500000  0.12500000       0.047
   0.50000000  0.37500000  0.12500000       0.047
   0.50000000  0.50000000  0.12500000       0.012
   0.25000000  0.25000000  0.25000000       0.016
   0.37500000  0.25000000  0.25000000       0.047
   0.50000000  0.25000000  0.25000000       0.023
   0.37500000  0.37500000  0.25000000       0.047
   0.50000000  0.37500000  0.25000000       0.047
   0.50000000  0.50000000  0.25000000       0.012
   0.37500000  0.37500000  0.37500000       0.016
   0.50000000  0.37500000  0.37500000       0.023
   0.50000000  0.50000000  0.37500000       0.012
   0.50000000  0.50000000  0.50000000       0.002

 position of ions in fractional coordinates (direct lattice)
   0.00000000  0.00000000  0.00000000
   0.00000000  0.50000000  0.50000000
   0.50000000  0.00000000  0.50000000
   0.50000000  0.50000000  0.00000000

 position of ions in cartesian coordinates  (Angst):
   0.00000000  0.00000000  0.00000000
   0.00000000  2.02010500  2.02010500
   2.02010500  0.00000000  2.02010500
   2.02010500  2.02010500  0.00000000

 k-point     1 :   0.0000 0.0000 0.0000  plane waves:     799
 k-point     2 :   0.1250 0.0000 0.0000  plane waves:     815
 k-point     3 :   0.2500 0.0000 0.0000  plane waves:     812
 k-point     4 :   0.3750 0.0000 0.0000  plane waves:     828
 k-point     5 :   0.5000 0.0000 0.0000  plane waves:     820
 k-point     6 :   0.1250 0.1250 0.0000  plane waves:     816
 k-point     7 :   0.2500 0.1250 0.0000  plane waves:     826
 k-point     8 :   0.3750 0.1250 0.0000  plane waves:     830
 k-point     9 :   0.5000 0.1250 0.0000  plane waves:     830
 k-point    10 :   0.2500 0.2500 0.0000  plane waves:     822
 k-point    11 :   0.3750 0.2500 0.0000  plane waves:     827
 k-point    12 :   0.5000 0.2500 0.0000  plane waves:     824
 k-point    13 :   0.3750 0.3750 0.0000  plane waves:     834
 k-point    14 :   0.5000 0.3750 0.0000  plane waves:     832
 k-point    15 :   0.5000 0.5000 0.0000  plane waves:     840
 k-point    16 :   0.1250 0.1250 0.1250  plane waves:     820
 k-point    17 :   0.2500 0.1250 0.1250  plane waves:     828
 k-point    18 :   0.3750 0.1250 0.1250  plane waves:     823
 k-point    19 :   0.5000 0.1250 0.1250  plane waves:     832
 k-point    20 :   0.2500 0.2500 0.1250  plane waves:     833
 k-point    21 :   0.3750 0.2500 0.1250  plane waves:     822
 k-point    22 :   0.5000 0.2500 0.1250  plane waves:     824
 k-point    23 :   0.3750 0.3750 0.1250  plane waves:     828
 k-point    24 :   0.5000 0.3750 0.1250  plane waves:     824
 k-point    25 :   0.5000 0.5000 0.1250  plane waves:     836
 k-point    26 :   0.2500 0.2500 0.2500  plane waves:     838
 k-point    27 :   0.3750 0.2500 0.2500  plane waves:     825
 k-point    28 :   0.5000 0.2500 0.2500  plane waves:     836
 k-point    29 :   0.3750 0.3750 0.2500  plane waves:     832
 k-point    30 :   0.5000 0.3750 0.2500  plane waves:     828
 k-point    31 :   0.5000 0.5000 0.2500  plane waves:     824
 k-point    32 :   0.3750 0.3750 0.3750  plane waves:     822
 k-point    33 :   0.5000 0.3750 0.3750  plane waves:     834
 k-point    34 :   0.5000 0.5000 0.3750  plane waves:     852
 k-point    35 :   0.5000 0.5000 0.5000  plane waves:     840

 maximum and minimum number of plane-waves per node :       852      799

 maximum number of plane-waves:       852
 maximum index in each direction:
   IXMAX=    5   IYMAX=    5   IZMAX=    5
   IXMIN=   -6   IYMIN=   -6   IZMIN=   -6

 serial   3D FFT for wavefunctions
 parallel 3D FFT for charge:
    minimum data exchange during FFTs selected (reduces bandwidth)

 Broyden mixing: mesh for mixing (old mesh)
   NGX = 11   NGY = 11   NGZ = 11
  (NGX  = 36   NGY  = 36   NGZ  = 36)
  gives a total of   1331 points

 charge density for first step will be calculated from the start-wavefunctions

 Maximum index for augmentation-charges          277 (set IRDMAX)

 initial charge from wavefunction
 First call to EWALD:  gamma=   0.439
 Maximum number of real-space cells 3x 3x 3
 Maximum number of reciprocal cells 3x 3x 3

--------------------------------------- Ionic step        1  -------------------------------------------

--------------------------------------- Iteration      1(   1)  ---------------------------------------

 eigenvalue-minimisations  :  2688
 total energy-change (2. order) :-0.1498812E+02  (-0.1720681E-08)
 number of electron      11.9999994 magnetization
 augmentation part       -0.1542002 magnetization

 Broyden mixing:
  rms(total) = 0.17344E-04    rms(broyden)= 0.17344E-04
  rms(prec ) = 0.17680E-04
  weight for this iteration     100.00

 Free energy of the ion-electron system (eV)
  alpha Z        PSCENC =        -0.81487987
  Ewald energy   TEWEN  =      -294.13785363
  -Hartree energ DENC   =        -0.42237847
  -exchange      EXHF   =         0.00000000
  -V(xc)+E(xc)   XCENC  =      -104.51981250
  PAW double counting   =       590.05579835     -462.29353679
  entropy T*S    EENTRO =        -0.00320427
  eigenvalues    EBANDS =        42.99652368
  atomic energy  EATOM  =       214.15122755
  Solvation  Ediel_sol  =         0.00000000
  free energy    TOTEN  =       -14.98811595 eV

  energy without entropy =      -14.98491169  energy(sigma->0) =      -14.98651382

--------------------------------------- Iteration      1(   2)  ---------------------------------------

 eigenvalue-minimisations  :  2784
 total energy-change (2. order) : 0.6218670E-09  (-0.7883369E-10)
 number of electron      11.9999994 magnetization
 augmentation part       -0.1542002 magnetization

 Free energy of the ion-electron system (eV)
  alpha Z        PSCENC =        -0.81487987
  Ewald energy   TEWEN  =      -294.13785363
  -Hartree energ DENC   =        -0.42237864
  -exchange      EXHF   =         0.00000000
  -V(xc)+E(xc)   XCENC  =      -104.51981170
  PAW double counting   =       590.06208543     -462.29982366
  entropy T*S    EENTRO =        -0.00320426
  eigenvalues    EBANDS =        42.99652283
  atomic energy  EATOM  =       214.15122755
  Solvation  Ediel_sol  =         0.00000000
  free energy    TOTEN  =       -14.98811595 eV

  energy without entropy =      -14.98491169  energy(sigma->0) =      -14.98651382

 average (electrostatic) potential at core
  the test charge radii are     1.0406
  (the norm of the test charge is              1.0000)
       1 -72.6079       2 -72.6079       3 -72.6079       4 -72.6079

 E-fermi :   8.1498     XC(G=0): -10.1986     alpha+bet :-14.8877

 val. band max:        8.1470461172   @ k =   0.3750   0.3750   0.1250
 cond. band min:       8.1803379706   @ k =   0.5000   0.0000   0.0000
 fundamental gap:      0.0332918534
 Fermi energy:         8.1497690505

 k-point     1 :       0.0000    0.0000    0.0000
  band No.  band energies     occupation
      1      -3.1302      2.00000
      2       5.0844      2.00000
      3       5.0844      2.00000
      4       5.0844      2.00000
      5       6.4109      2.00000
      6       6.4109      2.00000
      7       6.4109      2.00000
      8      13.2832      0.00000
      9      13.2832      0.00000
     10      13.2832      0.00000
     11      13.6086      0.00000
     12      13.6086      0.00000
     13      13.6086      0.00000
     14      13.6086      0.00000
     15      13.6086      0.00000
     16      13.6086      0.00000
     17      17.0931      0.00000
     18      17.0931      0.00000
     19      17.0931      0.00000
     20      20.6726      0.00000
     21      20.6726      0.00000
     22      20.6726      0.00000
     23      22.1327      0.00000
     24      22.1327      0.00000
     25      22.1327      0.00000
     26      24.4857      0.00000
     27      27.5037      0.00000
     28      27.5037      0.00000
     29      30.3082      0.00000
     30      32.6661      0.00000
     31      32.6661      0.00000
     32      32.6661      0.00000
     33      33.5086      0.00000
     34      33.5086      0.00000
     35      33.5086      0.00000
     36      35.0185      0.00000
     37      35.0185      0.00000
     38      35.0185      0.00000
     39      35.0185      0.00000
     40      35.0185      0.00000
     41      35.0185      0.00000
     42      40.6196      0.00000
     43      40.6196      0.00000
     44      40.6196      0.00000
     45      41.3603      0.00000
     46      41.4626      0.00000
     47      41.4626      0.00000
     48      41.4626      0.00000

[...]

 k-point    35 :       0.5000    0.5000    0.5000
  band No.  band energies     occupation
      1       3.4136      2.00000
      2       3.4136      2.00000
      3       3.4136      2.00000
      4       3.4136      2.00000
      5       3.6303      2.00000
      6       3.6303      2.00000
      7       3.6303      2.00000
      8       3.6303      2.00000
      9      19.4294      0.00000
     10      19.4294      0.00000
     11      19.4294      0.00000
     12      19.4294      0.00000
     13      19.4294      0.00000
     14      19.4294      0.00000
     15      19.4294      0.00000
     16      19.4294      0.00000
     17      19.4966      0.00000
     18      19.4966      0.00000
     19      19.4966      0.00000
     20      19.4966      0.00000
     21      19.4966      0.00000
     22      19.4966      0.00000
     23      19.4966      0.00000
     24      19.4966      0.00000
     25      23.1434      0.00000
     26      23.1434      0.00000
     27      23.1434      0.00000
     28      23.1434      0.00000
     29      23.3232      0.00000
     30      23.3232      0.00000
     31      23.3232      0.00000
     32      23.3232      0.00000
     33      32.8735      0.00000
     34      32.8735      0.00000
     35      32.8735      0.00000
     36      32.8735      0.00000
     37      32.8735      0.00000
     38      32.8735      0.00000
     39      32.8735      0.00000
     40      32.8735      0.00000
     41      38.8778      0.00000
     42      38.8778      0.00000
     43      38.8778      0.00000
     44      38.8778      0.00000
     45      38.8778      0.00000
     46      38.8778      0.00000
     47      38.8778      0.00000
     48      38.8778      0.00000

 soft charge-density along one line, spin component           1
         0         1         2         3         4         5         6         7         8         9
 total charge-density along one line

------------------------ aborting loop because EDIFF is reached ----------------------------------------

  FORCE on cell =-STRESS in cart. coord.  units (eV):
  Direction    XX          YY          ZZ          XY          YZ          ZX
  Alpha Z    -0.81488    -0.81488    -0.81488
  Ewald     -98.04599   -98.04599   -98.04599    -0.00000     0.00000     0.00000
  Hartree     0.14079     0.14079     0.14079    -0.00000    -0.00000    -0.00000
  E(xc)     -34.28749   -34.28749   -34.28749     0.00000     0.00000     0.00000
  Local       1.32517     1.32517     1.32517     0.00000     0.00000     0.00000
  n-local    74.64101    75.65454    77.22421     0.11761     0.76017     0.26112
  augment    -4.11224    -4.11224    -4.11224     0.00000     0.00000    -0.00000
  Kinetic    57.12182    58.51783    64.45119     0.37189    -6.79297    -1.53065
  Fock        0.00000     0.00000     0.00000     0.00000     0.00000     0.00000
  Total       0.07557     0.07557     0.07557     0.00000     0.00000     0.00000
  in kB       1.83581     1.83581     1.83581     0.00000     0.00000     0.00000

 VOLUME and BASIS-vectors are now :
  energy-cutoff  :      312.39
  volume of cell :       65.95
      direct lattice vectors                 reciprocal lattice vectors
     4.040210000  0.000000000  0.000000000     0.247511887 -0.000000000  0.000000000
     0.000000000  4.040210000  0.000000000     0.000000000  0.247511887  0.000000000
     0.000000000  0.000000000  4.040210000    -0.000000000 -0.000000000  0.247511887

  length of vectors
     4.040210000  4.040210000  4.040210000     0.247511887  0.247511887  0.247511887

 FORCES acting on ions
    electron-ion (+dipol)            ewald-force                    non-local-force                 convergence-correction
   0.330E-16 0.102E-14 0.254E-15   -.245E-14 -.444E-15 -.561E-15   0.137E-25 0.412E-26 -.230E-25   -.386E-15 0.677E-16 0.250E-16
   0.115E-14 -.150E-14 -.137E-14   -.241E-14 0.662E-15 0.373E-15   0.246E-26 -.787E-26 -.176E-25   -.366E-15 -.488E-16 -.295E-16
   -.442E-14 0.218E-14 0.289E-13   0.232E-14 -.649E-15 0.359E-15   -.108E-25 -.778E-26 -.960E-26   0.382E-15 0.247E-16 -.269E-16
   -.470E-14 -.118E-14 -.115E-13   0.235E-14 0.457E-15 -.478E-16   0.213E-25 0.601E-26 0.481E-26   0.347E-15 -.344E-16 0.301E-16
   -.794E-14 0.519E-15 0.163E-13   -.195E-15 0.245E-16 0.124E-15   0.267E-25 -.551E-26 -.454E-25   -.224E-16 0.914E-17 -.124E-17

 POSITION                                       TOTAL-FORCE (eV/Angst)
      0.00000      0.00000      0.00000         0.000000     -0.000000      0.000000
      0.00000      2.02011      2.02011        -0.000000     -0.000000     -0.000000
      2.02011      0.00000      2.02011        -0.000000      0.000000     -0.000000
      2.02011      2.02011      0.00000         0.000000      0.000000      0.000000
    total drift:                               -0.000000      0.000000      0.000000

  FREE ENERGIE OF THE ION-ELECTRON SYSTEM (eV)
  free  energy   TOTEN  =       -14.98811595 eV

  energy  without entropy=      -14.98491169  energy(sigma->0) =      -14.98651382

 writing wavefunctions