 vasp.6.4.3 19Mar24 (build Jun 26 2024 13:02:28) complex

 executed on             LinuxIFC date 2025.08.08  20:00:12

 INCAR:
   ENCUT = 315.6907
   IBRION = -1
   ISMEAR = 0
   ISYM = 2
   LCHARG = True
   LSORBIT = True
   LWAVE = True
   SAXIS = 0 0 1
   SIGMA = 0.05
   SYSTEM = Bi

 POTCAR:  PAW_PBE Bi_d 06Sep2000
|           W    W    AA    RRRRR   N    N  II  N    N   GGGG   !!!           |
|           W    W   A  A   R    R  NN   N  II  NN   N  G    G  !!!           |
|           W    W  A    A  R    R  N N  N  II  N N  N  G       !!!           |
|           W WW W  AAAAAA  RRRRR   N  N N  II  N  N N  G  GGG   !            |
|           WW  WW  A    A  R   R   N   NN  II  N   NN  G    G                |
|           W    W  A    A  R    R  N    N  II  N    N   GGGG   !!!           |
|     You use a magnetic or noncollinear calculation, but did not specify     |
|     the initial magnetic moment with the MAGMOM tag. Note that a            |
|     default of 1 will be used for all atoms. This ferromagnetic setup       |
|     may break the symmetry of the crystal, in particular it may rule        |
|     out finding an antiferromagnetic solution. Thence, we recommend         |
|     setting the initial magnetic moment manually or verifying carefully     |
|     that this magnetic setup is desired.                                    |

 POTCAR:  PAW_PBE Bi_d 06Sep2000
   VRHFIN =Bi:

   TITEL  = PAW_PBE Bi_d 06Sep2000
   POMASS =  208.980; ZVAL   =   15.000    mass and valenz
   ENMAX  =  242.839; ENMIN  =  182.129 eV

PAW_PBE Bi_d 06Sep2000                  :

 POSCAR: Bi6
  positions in direct lattice

 exchange-correlation table for PE
   RHO(1)=    0.500       N(1)  =     2000
   RHO(2)=  100.500       N(2)  =     4000

 ion  position               nearest neighbor table
   1  0.000  0.000  0.234-   4 3.11   4 3.11   4 3.11   6 3.59   6 3.59   6 3.59
   2  0.000  0.000  0.766-   5 3.11   5 3.11   5 3.11   3 3.59   3 3.59   3 3.59
   3  0.667  0.333  0.567-   6 3.11   6 3.11   6 3.11   2 3.59   2 3.59   2 3.59
   4  0.667  0.333  0.100-   1 3.11   1 3.11   1 3.11   5 3.59   5 3.59   5 3.59
   5  0.333  0.667  0.900-   2 3.11   2 3.11   2 3.11   4 3.59   4 3.59   4 3.59
   6  0.333  0.667  0.433-   3 3.11   3 3.11   3 3.11   1 3.59   1 3.59   1 3.59

  LATTYP: Found a hexagonal cell.
 ALAT       =     4.5886600000
 C/A-ratio  =     2.6548556659

  Lattice vectors:

 A1 = (   4.5886600000,   0.0000000000,   0.0000000000)
 A2 = (  -2.2943300000,   3.9738961293,   0.0000000000)
 A3 = (   0.0000000000,   0.0000000000,  12.1822300000)

Analysis of symmetry for initial positions (statically):
 Subroutine PRICEL returns:
 Original cell was already a primitive cell.

 Routine SETGRP: Setting up the symmetry group for a
 hexagonal supercell.

 Subroutine GETGRP returns: Found 12 space group operations
 (whereof 12 operations were pure point group operations)
 out of a pool of 24 trial point group operations.

The static configuration has the point symmetry D_3d.

Analysis of symmetry for dynamics (positions and initial velocities):
 Subroutine PRICEL returns:
 Original cell was already a primitive cell.

[...]

The dynamic configuration has the point symmetry D_3d.

Analysis of structural, dynamic, and magnetic symmetry:
 Subroutine PRICEL returns:
 Original cell was already a primitive cell.

 Routine SETGRP: Setting up the symmetry group for a
 hexagonal supercell.

 Subroutine GETGRP returns: Found  2 space group operations
 (whereof  2 operations were pure point group operations)
 out of a pool of 24 trial point group operations.

The overall configuration has the point symmetry S_2 .

 Subroutine INISYM returns: Found  2 space group operations
 (whereof  2 operations are pure point group operations),
 and found     1 'primitive' translations

                                     Primitive cell

  volume of cell :     222.1412

  direct lattice vectors                    reciprocal lattice vectors
     4.588660000  0.000000000  0.000000000     0.217928546  0.125821104  0.000000000
    -2.294330000  3.973896129  0.000000000     0.000000000  0.251642209  0.000000000
     0.000000000  0.000000000 12.182230000    -0.000000000 -0.000000000  0.082086777

  length of vectors
     4.588660000  4.588660000 12.182230000     0.251642209  0.251642209  0.082086777

  position of ions in fractional coordinates (direct lattice)
     0.000000000  0.000000000  0.233740000
     0.000000000  0.000000000  0.766260000
     0.666666667  0.333333333  0.567070000
     0.666666667  0.333333333  0.099590000
     0.333333333  0.666666667  0.900410000
     0.333333333  0.666666667  0.432930000

  ion indices of the primitive-cell ions
   primitive index   ion index
                 1           1
                 2           2
                 3           3
                 4           4
                 5           5
                 6           6

 KPOINTS: Automatic kpoint scheme

Automatic generation of k-mesh.
 Grid dimensions read from file:
 generate k-points for:    8    8    8

 Generating k-lattice:

  Cartesian coordinates                     Fractional coordinates (reciprocal lattice)
     0.027241068  0.015727638  0.000000000     0.125000000  0.000000000  0.000000000
     0.000000000  0.031455276  0.000000000     0.000000000  0.125000000  0.000000000
    -0.000000000 -0.000000000  0.010260847    -0.000000000  0.000000000  0.125000000

  Length of vectors
     0.031455276  0.031455276  0.010260847

  Shift w.r.t. Gamma in fractional coordinates (k-lattice)
     0.000000000  0.000000000  0.000000000

 Subroutine IBZKPT returns following result:

 Found    260 irreducible k-points:

 Following reciprocal coordinates:
            Coordinates               Weight
  0.000000  0.000000  0.000000      1.000000
  0.125000  0.000000  0.000000      2.000000
  0.000000  0.125000  0.000000      2.000000
 -0.125000  0.125000  0.000000      2.000000
  0.250000  0.000000  0.000000      2.000000
  0.000000  0.250000  0.000000      2.000000
 -0.250000  0.250000  0.000000      2.000000
  0.375000  0.000000  0.000000      2.000000
  0.000000  0.375000  0.000000      2.000000
 -0.375000  0.375000  0.000000      2.000000
  0.500000  0.000000  0.000000      1.000000
  0.000000  0.500000  0.000000      1.000000
  0.500000  0.500000  0.000000      1.000000
  0.125000  0.125000  0.000000      2.000000
 -0.125000  0.250000  0.000000      2.000000
 -0.250000  0.125000  0.000000      2.000000
  0.250000  0.125000  0.000000      2.000000
 -0.125000  0.375000  0.000000      2.000000
 -0.375000  0.250000  0.000000      2.000000
 -0.250000  0.375000  0.000000      2.000000
  0.125000  0.250000  0.000000      2.000000
  0.375000 -0.125000  0.000000      2.000000
  0.375000  0.125000  0.000000      2.000000
 -0.125000  0.500000  0.000000      2.000000
  0.500000  0.375000  0.000000      2.000000
 -0.375000  0.500000  0.000000      2.000000
  0.125000  0.375000  0.000000      2.000000
  0.500000 -0.125000  0.000000      2.000000
  0.250000  0.250000  0.000000      2.000000
 -0.250000  0.500000  0.000000      2.000000
  0.500000  0.250000  0.000000      2.000000
  0.375000  0.250000  0.000000      2.000000
 -0.250000 -0.375000  0.000000      2.000000
  0.375000  0.375000  0.000000      2.000000
 -0.000000  0.000000  0.125000      2.000000
  0.125000  0.000000  0.125000      2.000000
 -0.000000  0.125000  0.125000      2.000000
 -0.125000  0.125000  0.125000      2.000000
 -0.125000 -0.000000  0.125000      2.000000
 -0.000000 -0.125000  0.125000      2.000000
  0.125000 -0.125000  0.125000      2.000000
  0.250000  0.000000  0.125000      2.000000
 -0.000000  0.250000  0.125000      2.000000
 -0.250000  0.250000  0.125000      2.000000
 -0.250000 -0.000000  0.125000      2.000000
 -0.000000 -0.250000  0.125000      2.000000
  0.250000 -0.250000  0.125000      2.000000
  0.375000  0.000000  0.125000      2.000000
 -0.000000  0.375000  0.125000      2.000000
 -0.375000  0.375000  0.125000      2.000000
 -0.375000  0.000000  0.125000      2.000000
 -0.000000 -0.375000  0.125000      2.000000
  0.375000 -0.375000  0.125000      2.000000
  0.500000  0.000000  0.125000      2.000000
 -0.000000  0.500000  0.125000      2.000000
  0.500000  0.500000  0.125000      2.000000
  0.125000  0.125000  0.125000      2.000000
 -0.125000  0.250000  0.125000      2.000000
 -0.250000  0.125000  0.125000      2.000000
 -0.125000 -0.125000  0.125000      2.000000
[...]
 -0.250000  0.375000  0.500000      2.000000
  0.125000  0.250000  0.500000      2.000000
  0.375000 -0.125000  0.500000      2.000000
  0.375000  0.125000  0.500000      2.000000
 -0.125000  0.500000  0.500000      2.000000
  0.500000  0.375000  0.500000      2.000000
 -0.375000  0.500000  0.500000      2.000000
  0.125000  0.375000  0.500000      2.000000
  0.500000 -0.125000  0.500000      2.000000
  0.250000  0.250000  0.500000      2.000000
 -0.250000  0.500000  0.500000      2.000000
  0.500000  0.250000  0.500000      2.000000
  0.375000  0.250000  0.500000      2.000000
 -0.250000 -0.375000  0.500000      2.000000
  0.375000  0.375000  0.500000      2.000000

 Following cartesian coordinates:
            Coordinates               Weight
  0.000000  0.000000  0.000000      1.000000
  0.027241  0.015728  0.000000      2.000000
  0.000000  0.031455  0.000000      2.000000
 -0.027241  0.015728  0.000000      2.000000
  0.054482  0.031455  0.000000      2.000000
  0.000000  0.062911  0.000000      2.000000
 -0.054482  0.031455  0.000000      2.000000
  0.081723  0.047183  0.000000      2.000000
  0.000000  0.094366  0.000000      2.000000
 -0.081723  0.047183  0.000000      2.000000
  0.108964  0.062911  0.000000      1.000000
  0.000000  0.125821  0.000000      1.000000
  0.108964  0.188732  0.000000      1.000000
  0.027241  0.047183  0.000000      2.000000
 -0.027241  0.047183  0.000000      2.000000
 -0.054482  0.000000  0.000000      2.000000
  0.054482  0.062911  0.000000      2.000000
 -0.027241  0.078638  0.000000      2.000000
 -0.081723  0.015728  0.000000      2.000000
 -0.054482  0.062911  0.000000      2.000000
  0.027241  0.078638  0.000000      2.000000
  0.081723  0.015728  0.000000      2.000000
  0.081723  0.078638  0.000000      2.000000
 -0.027241  0.110093  0.000000      2.000000
  0.108964  0.157276  0.000000      2.000000
 -0.081723  0.078638  0.000000      2.000000
  0.027241  0.110093  0.000000      2.000000
  0.108964  0.031455  0.000000      2.000000
  0.054482  0.094366  0.000000      2.000000
 -0.054482  0.094366  0.000000      2.000000
  0.108964  0.125821  0.000000      2.000000
  0.081723  0.110093  0.000000      2.000000
 -0.054482 -0.125821  0.000000      2.000000
  0.081723  0.141549  0.000000      2.000000
 -0.000000 -0.000000  0.010261      2.000000
  0.027241  0.015728  0.010261      2.000000
 -0.000000  0.031455  0.010261      2.000000
 -0.027241  0.015728  0.010261      2.000000
 -0.027241 -0.015728  0.010261      2.000000
 -0.000000 -0.031455  0.010261      2.000000
  0.027241 -0.015728  0.010261      2.000000
  0.054482  0.031455  0.010261      2.000000
 -0.000000  0.062911  0.010261      2.000000
 -0.054482  0.031455  0.010261      2.000000
[...]
 k-point    55 :  -0.0000 0.5000 0.1250  plane waves:    5636
 k-point    56 :   0.5000 0.5000 0.1250  plane waves:    5636
 k-point    57 :   0.1250 0.1250 0.1250  plane waves:    5650
 k-point    58 :  -0.1250 0.2500 0.1250  plane waves:    5650
 k-point    59 :  -0.2500 0.1250 0.1250  plane waves:    5650
 k-point    60 :  -0.1250-0.1250 0.1250  plane waves:    5650
[...]
 k-point   246 :  -0.2500 0.3750 0.5000  plane waves:    5660
 k-point   247 :   0.1250 0.2500 0.5000  plane waves:    5660
 k-point   248 :   0.3750-0.1250 0.5000  plane waves:    5660
 k-point   249 :   0.3750 0.1250 0.5000  plane waves:    5672
 k-point   250 :  -0.1250 0.5000 0.5000  plane waves:    5672
 k-point   251 :   0.5000 0.3750 0.5000  plane waves:    5672
 k-point   252 :  -0.3750 0.5000 0.5000  plane waves:    5672
 k-point   253 :   0.1250 0.3750 0.5000  plane waves:    5672
 k-point   254 :   0.5000-0.1250 0.5000  plane waves:    5672
 k-point   255 :   0.2500 0.2500 0.5000  plane waves:    5660
 k-point   256 :  -0.2500 0.5000 0.5000  plane waves:    5660
 k-point   257 :   0.5000 0.2500 0.5000  plane waves:    5660
 k-point   258 :   0.3750 0.2500 0.5000  plane waves:    5636
 k-point   259 :  -0.2500-0.3750 0.5000  plane waves:    5636
 k-point   260 :   0.3750 0.3750 0.5000  plane waves:    5636

 maximum and minimum number of plane-waves per node :      5784     5616

 maximum number of plane-waves:      5784
 maximum index in each direction:
   IXMAX=    7   IYMAX=    7   IZMAX=   17
   IXMIN=   -7   IYMIN=   -7   IZMIN=  -18

 serial   3D FFT for wavefunctions
 parallel 3D FFT for charge:
    minimum data exchange during FFTs selected (reduces bandwidth)

 Broyden mixing: mesh for mixing (old mesh)
   NGX = 13   NGY = 13   NGZ = 35
  (NGX  = 40   NGY  = 40   NGZ  =108)
  gives a total of   5915 points

 charge density for first step will be calculated from the start-wavefunctions

 Maximum index for augmentation-charges          285 (set IRDMAX)

 initial charge from wavefunction
 First call to EWALD:  gamma=   0.293
 Maximum number of real-space cells 4x 4x 2
 Maximum number of reciprocal cells 2x 2x 5

--------------------------------------- Ionic step        1  -------------------------------------------

--------------------------------------- Iteration      1(   1)  ---------------------------------------

 eigenvalue-minimisations  : 84576
 total energy-change (2. order) :-0.2824254E+02  (-0.4811467E-05)
 number of electron      89.9999974 magnetization       0.0002333      0.0002284      0.0003449
 augmentation part       34.7209292 magnetization       0.0002532      0.0002422      0.0003414

 Broyden mixing:
  rms(total) = 0.48780E-03    rms(broyden)= 0.48771E-03
  rms(prec ) = 0.59650E-03
  weight for this iteration     100.00

 Free energy of the ion-electron system (eV)
  alpha Z        PSCENC =       277.73999325
  Ewald energy   TEWEN  =     -8227.31866085
  -Hartree energ DENC   =     -3300.99635942
  -exchange      EXHF   =         0.00000000
  -V(xc)+E(xc)   XCENC  =       291.96398081
  PAW double counting   =     10286.86224084   -10119.95084297
  entropy T*S    EENTRO =        -0.00040372
  eigenvalues    EBANDS =      -991.52214045
  atomic energy  EATOM  =     11754.97965687
  Solvation  Ediel_sol  =         0.00000000
  free energy    TOTEN  =       -28.24253564 eV

  energy without entropy =      -28.24213192  energy(sigma->0) =      -28.24233378

--------------------------------------- Iteration      1(   2)  ---------------------------------------

 eigenvalue-minimisations  : 65280
 total energy-change (2. order) :-0.2392771E-06  (-0.7590382E-06)
 number of electron      89.9999974 magnetization       0.0002333      0.0002284      0.0003449
 augmentation part       34.7209292 magnetization       0.0002532      0.0002422      0.0003414

 Free energy of the ion-electron system (eV)
  alpha Z        PSCENC =       277.73999325
  Ewald energy   TEWEN  =     -8227.31866085
  -Hartree energ DENC   =     -3300.96543756
  -exchange      EXHF   =         0.00000000
  -V(xc)+E(xc)   XCENC  =       291.96286780
  PAW double counting   =     10286.87994174   -10119.97172902
  entropy T*S    EENTRO =        -0.00040351
  eigenvalues    EBANDS =      -991.54876460
  atomic energy  EATOM  =     11754.97965687
  Solvation  Ediel_sol  =         0.00000000
  free energy    TOTEN  =       -28.24253588 eV

  energy without entropy =      -28.24213237  energy(sigma->0) =      -28.24233412

 average (electrostatic) potential at core
  the test charge radii are     1.0856
  (the norm of the test charge is              1.0000)
       1-104.7910       2-104.7910       3-104.7911       4-104.7910       5-104.7910
       6-104.7911

 E-fermi :   5.8235     XC(G=0):  -9.2615     alpha+bet :-10.5518

 val. band max:        5.7531296891   @ k =  -0.0000   0.0000   0.1250
 cond. band min:       5.8256706305   @ k =  -0.0000   0.0000   0.2500
 fundamental gap:      0.0725409414
 Fermi energy:         5.8234543543

 k-point     1 :       0.0000    0.0000    0.0000
  band No.  band energies     occupation
      1     -18.4848      1.00000
      2     -18.4848      1.00000
      3     -18.4767      1.00000
      4     -18.4767      1.00000
      5     -18.4759      1.00000
      6     -18.4759      1.00000
      7     -18.4758      1.00000
      8     -18.4758      1.00000
      9     -18.4628      1.00000
     10     -18.4628      1.00000
     11     -18.4627      1.00000
     12     -18.4627      1.00000
     13     -18.4270      1.00000
     14     -18.4270      1.00000
     15     -18.4270      1.00000
     16     -18.4270      1.00000
     17     -18.4267      1.00000
     18     -18.4267      1.00000
     19     -18.4267      1.00000
     20     -18.4267      1.00000
     21     -18.4222      1.00000
     22     -18.4222      1.00000
     23     -18.4191      1.00000
     24     -18.4191      1.00000
     25     -15.5844      1.00000
     26     -15.5843      1.00000
     27     -15.5674      1.00000
     28     -15.5673      1.00000
     29     -15.5646      1.00000
     30     -15.5646      1.00000
     31     -15.5645      1.00000
     32     -15.5645      1.00000
     33     -15.5643      1.00000
     34     -15.5643      1.00000
     35     -15.5399      1.00000
     36     -15.5399      1.00000
     37     -15.5398      1.00000
     38     -15.5398      1.00000
     39     -15.5371      1.00000
     40     -15.5371      1.00000
     41     -15.5371      1.00000
     42     -15.5371      1.00000
     43     -15.4090      1.00000
     44     -15.4090      1.00000
     45     -15.4090      1.00000
     46     -15.4090      1.00000
     47     -15.4017      1.00000
     48     -15.4017      1.00000
     49     -15.4016      1.00000
     50     -15.4016      1.00000
     51     -15.3959      1.00000
     52     -15.3959      1.00000
     53     -15.3959      1.00000
     54     -15.3959      1.00000
     55     -15.3782      1.00000
     56     -15.3782      1.00000
     57     -15.3736      1.00000
     58     -15.3736      1.00000
     59     -15.3677      1.00000
     60     -15.3677      1.00000
[...]
    130      13.1329      0.00000
    131      13.5894      0.00000
    132      13.5895      0.00000
    133      13.5951      0.00000
    134      13.5951      0.00000
    135      15.2068      0.00000
    136      15.2068      0.00000
    137      15.2071      0.00000
    138      15.2072      0.00000
    139      16.1545      0.00000
    140      16.1546      0.00000
    141      16.1547      0.00000
    142      16.1547      0.00000
    143      16.6035      0.00000
    144      16.6037      0.00000

[...]

 k-point   260 :       0.3750    0.3750    0.5000
  band No.  band energies     occupation
      1     -18.4810      1.00000
      2     -18.4810      1.00000
      3     -18.4810      1.00000
      4     -18.4810      1.00000
      5     -18.4782      1.00000
      6     -18.4781      1.00000
      7     -18.4572      1.00000
      8     -18.4572      1.00000
      9     -18.4572      1.00000
     10     -18.4572      1.00000
     11     -18.4492      1.00000
     12     -18.4492      1.00000
     13     -18.4420      1.00000
     14     -18.4420      1.00000
     15     -18.4343      1.00000
     16     -18.4343      1.00000
     17     -18.4343      1.00000
     18     -18.4343      1.00000
     19     -18.4143      1.00000
     20     -18.4142      1.00000
     21     -18.4121      1.00000
     22     -18.4121      1.00000
     23     -18.4121      1.00000
     24     -18.4121      1.00000
     25     -15.5671      1.00000
     26     -15.5671      1.00000
     27     -15.5671      1.00000
     28     -15.5671      1.00000
     29     -15.5599      1.00000
     30     -15.5599      1.00000
     31     -15.5264      1.00000
     32     -15.5264      1.00000
     33     -15.5264      1.00000
     34     -15.5264      1.00000
     35     -15.5199      1.00000
     36     -15.5199      1.00000
     37     -15.4923      1.00000
     38     -15.4923      1.00000
     39     -15.4923      1.00000
     40     -15.4923      1.00000
     41     -15.4887      1.00000
     42     -15.4887      1.00000
     43     -15.4615      1.00000
     44     -15.4615      1.00000
     45     -15.4547      1.00000
     46     -15.4547      1.00000
     47     -15.4546      1.00000
     48     -15.4546      1.00000
     49     -15.4299      1.00000
     50     -15.4299      1.00000
     51     -15.4277      1.00000
     52     -15.4277      1.00000
     53     -15.4277      1.00000
     54     -15.4277      1.00000
     55     -15.3924      1.00000
     56     -15.3924      1.00000
     57     -15.3823      1.00000
     58     -15.3823      1.00000
     59     -15.3823      1.00000
     60     -15.3823      1.00000
[...]
    130      15.6518      0.00000
    131      15.6519      0.00000
    132      15.6520      0.00000
    133      16.0710      0.00000
    134      16.0710      0.00000
    135      16.0711      0.00000
    136      16.0711      0.00000
    137      17.0981      0.00000
    138      17.0981      0.00000
    139      17.1040      0.00000
    140      17.1040      0.00000
    141      17.1041      0.00000
    142      17.1041      0.00000
    143      17.3918      0.00000
    144      17.3919      0.00000

 soft charge-density along one line, spin component           1
         0         1         2         3         4         5         6         7         8         9
 total charge-density along one line

[...]

 soft charge-density along one line, spin component           4
         0         1         2         3         4         5         6         7         8         9
 total charge-density along one line

------------------------ aborting loop because EDIFF is reached ----------------------------------------

  FORCE on cell =-STRESS in cart. coord.  units (eV):
  Direction    XX          YY          ZZ          XY          YZ          ZX
  Alpha Z   277.73999   277.73999   277.73999
  Ewald   -2698.78997 -2698.78997 -2829.75082    -0.00000    -0.00000     0.00000
  Hartree  1129.34348  1129.34312  1042.26128     0.00030     0.00005    -0.00024
  E(xc)    -436.71082  -436.71095  -436.73805    -0.00012     0.00000    -0.00000
  Local    -560.76376  -560.76333  -344.29210    -0.00044    -0.00004     0.00030
  n-local   637.11183   637.11182   637.05183    -0.00015     0.00002     0.00010
  augment   794.84813   794.84760   794.52920    -0.00067     0.00004    -0.00006
  Kinetic   857.50967   857.50959   859.01021     0.00019    -0.00012     0.00014
  Fock        0.00000     0.00000     0.00000     0.00000     0.00000     0.00000
  Total       0.28856     0.28788    -0.18845    -0.00088    -0.00005     0.00023
  in kB       2.08124     2.07635    -1.35915    -0.00634    -0.00034     0.00169

 VOLUME and BASIS-vectors are now :
  energy-cutoff  :      315.69
  volume of cell :      222.14
      direct lattice vectors                 reciprocal lattice vectors
     4.588660000  0.000000000  0.000000000     0.217928546  0.125821104  0.000000000
    -2.294330000  3.973896129  0.000000000     0.000000000  0.251642209  0.000000000
     0.000000000  0.000000000 12.182230000    -0.000000000 -0.000000000  0.082086777

  length of vectors
     4.588660000  4.588660000 12.182230000     0.251642209  0.251642209  0.082086777

 FORCES acting on ions
    electron-ion (+dipol)            ewald-force                    non-local-force                 convergence-correction
   0.727E-03 0.833E-03 -.787E+02   -.541E-11 0.314E-11 0.839E+02   -.311E-04 0.684E-04 -.528E+01   -.694E-03 -.917E-03 -.130E-01
   -.727E-03 -.833E-03 0.787E+02   0.541E-11 -.320E-11 -.839E+02   0.311E-04 -.684E-04 0.528E+01   0.694E-03 0.917E-03 0.130E-01
   0.714E-03 0.830E-03 -.787E+02   0.215E-10 -.124E-10 0.839E+02   -.257E-04 0.586E-04 -.528E+01   -.682E-03 -.903E-03 -.123E-01
   -.720E-03 -.845E-03 0.786E+02   0.156E-10 -.898E-11 -.839E+02   0.405E-04 -.677E-04 0.528E+01   0.691E-03 0.915E-03 0.123E-01
   0.720E-03 0.845E-03 -.786E+02   -.156E-10 0.899E-11 0.839E+02   -.405E-04 0.677E-04 -.528E+01   -.691E-03 -.915E-03 -.123E-01
   -.714E-03 -.830E-03 0.787E+02   -.215E-10 0.124E-10 -.839E+02   0.257E-04 -.586E-04 0.528E+01   0.682E-03 0.903E-03 0.123E-01
   -.722E-11 -.351E-11 0.960E-11   0.332E-15 -.508E-13 -.114E-12   0.000E+00 0.000E+00 0.888E-15   -.120E-12 0.483E-13 0.517E-14

 POSITION                                       TOTAL-FORCE (eV/Angst)
      0.00000      0.00000      2.84747         0.000002     -0.000016     -0.032971
      0.00000      0.00000      9.33476        -0.000002      0.000016      0.032971
      2.29433      1.32463      6.90818         0.000006     -0.000015     -0.033175
      2.29433      1.32463      1.21323         0.000011      0.000002      0.033793
      0.00000      2.64926     10.96900        -0.000011     -0.000002     -0.033793
      0.00000      2.64926      5.27405        -0.000006      0.000015      0.033175
    total drift:                               -0.000000     -0.000000      0.000000

  FREE ENERGIE OF THE ION-ELECTRON SYSTEM (eV)
  free  energy   TOTEN  =       -28.24253588 eV

  energy  without entropy=      -28.24213237  energy(sigma->0) =      -28.24233412

 writing wavefunctions

 Spin-Orbit-Coupling matrix elements

 Ion:    1  E_soc:     -1.7146003
 l=   1
     0.0000000    -0.2206780    -0.2209913
    -0.2206780     0.0000000    -0.2206779
    -0.2209913    -0.2206779     0.0000000
 l=   2
     0.0000000    -0.0129679     0.0000000    -0.0129679    -0.0520271
    -0.0129679     0.0000000    -0.0390635    -0.0129276    -0.0129679
     0.0000000    -0.0390635     0.0000000    -0.0390634     0.0000000
    -0.0129679    -0.0129276    -0.0390634     0.0000000    -0.0129678
    -0.0520271    -0.0129679     0.0000000    -0.0129678     0.0000000
 l=   3
     0.0000000     0.0000000     0.0000000     0.0000000     0.0000000     0.0000000     0.0000000
     0.0000000     0.0000000     0.0000000     0.0000000     0.0000000     0.0000000     0.0000000
     0.0000000     0.0000000     0.0000000     0.0000000     0.0000000     0.0000000     0.0000000
     0.0000000     0.0000000     0.0000000     0.0000000     0.0000000     0.0000000     0.0000000
     0.0000000     0.0000000     0.0000000     0.0000000     0.0000000     0.0000000     0.0000000
     0.0000000     0.0000000     0.0000000     0.0000000     0.0000000     0.0000000     0.0000000
     0.0000000     0.0000000     0.0000000     0.0000000     0.0000000     0.0000000     0.0000000

[...]

 Ion:    6  E_soc:     -1.7145734
 l=   1
     0.0000000    -0.2206748    -0.2209827
    -0.2206748     0.0000000    -0.2206747
    -0.2209827    -0.2206747     0.0000000
 l=   2
     0.0000000    -0.0129679     0.0000000    -0.0129680    -0.0520274
    -0.0129679     0.0000000    -0.0390639    -0.0129278    -0.0129680
     0.0000000    -0.0390639     0.0000000    -0.0390637     0.0000000
    -0.0129680    -0.0129278    -0.0390637     0.0000000    -0.0129679
    -0.0520274    -0.0129680     0.0000000    -0.0129679     0.0000000
 l=   3
     0.0000000     0.0000000     0.0000000     0.0000000     0.0000000     0.0000000     0.0000000
     0.0000000     0.0000000     0.0000000     0.0000000     0.0000000     0.0000000     0.0000000
     0.0000000     0.0000000     0.0000000     0.0000000     0.0000000     0.0000000     0.0000000
     0.0000000     0.0000000     0.0000000     0.0000000     0.0000000     0.0000000     0.0000000
     0.0000000     0.0000000     0.0000000     0.0000000     0.0000000     0.0000000     0.0000000
     0.0000000     0.0000000     0.0000000     0.0000000     0.0000000     0.0000000     0.0000000
     0.0000000     0.0000000     0.0000000     0.0000000     0.0000000     0.0000000     0.0000000