 vasp.6.4.3 19Mar24 (build Jun 26 2024 13:02:28) complex

 executed on             LinuxIFC date 2025.08.08  18:33:10

 INCAR:
   ENCUT = 346.33040000000005
   IBRION = -1
   ISMEAR = 0
   ISYM = 2
   LCHARG = True
   LWAVE = True
   SIGMA = 0.05
   SYSTEM = Ar

 POTCAR:  PAW_PBE Ar 07Sep2000
|           W    W    AA    RRRRR   N    N  II  N    N   GGGG   !!!           |
|           W    W   A  A   R    R  NN   N  II  NN   N  G    G  !!!           |
|           W    W  A    A  R    R  N N  N  II  N N  N  G       !!!           |
|           W WW W  AAAAAA  RRRRR   N  N N  II  N  N N  G  GGG   !            |
|           WW  WW  A    A  R   R   N   NN  II  N   NN  G    G                |
|           W    W  A    A  R    R  N    N  II  N    N   GGGG   !!!           |
|     For optimal performance we recommend to set                             |
|       NCORE = 2 up to number-of-cores-per-socket                            |
|     This setting can greatly improve the performance of VASP for DFT.       |
|     The default, NCORE=1 might be grossly inefficient on modern             |
|     multi-core architectures or massively parallel machines. Do your        |
|     Unfortunately you need to use the default for GW and RPA                |
|     calculations (for HF NCORE is supported but not extensively tested      |
|     yet).                                                                   |

 POTCAR:  PAW_PBE Ar 07Sep2000
   VRHFIN =Ar: s2p6

   TITEL  = PAW_PBE Ar 07Sep2000
   POMASS =   39.949; ZVAL   =    8.000    mass and valenz
   ENMAX  =  266.408; ENMIN  =  199.806 eV

PAW_PBE Ar 07Sep2000                    :

 POSCAR: Ar4
  positions in direct lattice

 exchange-correlation table for PE
   RHO(1)=    0.500       N(1)  =     2000
   RHO(2)=  100.500       N(2)  =     4000

 ion  position               nearest neighbor table
   1  0.000  0.000  0.000-
   2  0.000  0.500  0.500-
   3  0.500  0.000  0.500-
   4  0.500  0.500  0.000-

  LATTYP: Found a simple cubic cell.
 ALAT       =     5.9505900000

  Lattice vectors:

 A1 = (   5.9505900000,   0.0000000000,   0.0000000000)
 A2 = (   0.0000000000,   5.9505900000,   0.0000000000)
 A3 = (   0.0000000000,   0.0000000000,   5.9505900000)

Analysis of symmetry for initial positions (statically):
 Subroutine PRICEL returns following result:

  LATTYP: Found a face centered cubic cell.
 ALAT       =     5.9505900000

[...]

   4 primitive cells build up your supercell.

 Routine SETGRP: Setting up the symmetry group for a
 simple cubic supercell.

 Subroutine GETGRP returns: Found 48 space group operations
 (whereof 48 operations were pure point group operations)
 out of a pool of 48 trial point group operations.

The static configuration has the point symmetry O_h .

Analysis of symmetry for dynamics (positions and initial velocities):
 Subroutine PRICEL returns following result:

  LATTYP: Found a face centered cubic cell.
 ALAT       =     5.9505900000

  Lattice vectors:

 A1 = (   2.9752950000,  -2.9752950000,   0.0000000000)
 A2 = (   2.9752950000,   0.0000000000,   2.9752950000)
 A3 = (  -0.0000000000,  -2.9752950000,   2.9752950000)

   4 primitive cells build up your supercell.

 Routine SETGRP: Setting up the symmetry group for a
 simple cubic supercell.

 Subroutine GETGRP returns: Found 48 space group operations
 (whereof 48 operations were pure point group operations)
 out of a pool of 48 trial point group operations.

The dynamic configuration has the point symmetry O_h .

 Subroutine INISYM returns: Found 48 space group operations
 (whereof 48 operations are pure point group operations),
 and found     4 'primitive' translations

                                     Primitive cell

  volume of cell :      52.6769

  direct lattice vectors                    reciprocal lattice vectors
     2.975295000 -2.975295000  0.000000000     0.168050563 -0.168050563 -0.168050563
     2.975295000  0.000000000  2.975295000     0.168050563  0.168050563  0.168050563
    -0.000000000 -2.975295000  2.975295000    -0.168050563 -0.168050563  0.168050563

  length of vectors
     4.207702541  4.207702541  4.207702541     0.291072113  0.291072113  0.291072113

  position of ions in fractional coordinates (direct lattice)
     0.000000000  0.000000000  0.000000000

  ion indices of the primitive-cell ions
   primitive index   ion index
                 1           1

 KPOINTS: Automatic kpoint scheme

Automatic generation of k-mesh.
 Grid dimensions read from file:
 generate k-points for:   12   12   12

 Generating k-lattice:

  Cartesian coordinates                     Fractional coordinates (reciprocal lattice)
     0.014004214 -0.000000000  0.000000000     0.083333333  0.000000000  0.000000000
     0.000000000  0.014004214  0.000000000     0.000000000  0.083333333  0.000000000
    -0.000000000 -0.000000000  0.014004214     0.000000000  0.000000000  0.083333333

  Length of vectors
     0.014004214  0.014004214  0.014004214

  Shift w.r.t. Gamma in fractional coordinates (k-lattice)
     0.000000000  0.000000000  0.000000000

 Subroutine IBZKPT returns following result:

 Found     84 irreducible k-points:

 Following reciprocal coordinates:
            Coordinates               Weight
  0.000000  0.000000  0.000000      1.000000
  0.083333 -0.000000  0.000000      6.000000
  0.166667 -0.000000  0.000000      6.000000
  0.250000 -0.000000  0.000000      6.000000
  0.333333 -0.000000  0.000000      6.000000
  0.416667 -0.000000  0.000000      6.000000
  0.500000 -0.000000  0.000000      3.000000
  0.083333  0.083333  0.000000     12.000000
  0.166667  0.083333  0.000000     24.000000
  0.250000  0.083333  0.000000     24.000000
  0.333333  0.083333  0.000000     24.000000
  0.416667  0.083333  0.000000     24.000000
  0.500000  0.083333  0.000000     12.000000
  0.166667  0.166667  0.000000     12.000000
  0.250000  0.166667  0.000000     24.000000
  0.333333  0.166667  0.000000     24.000000
  0.416667  0.166667  0.000000     24.000000
  0.500000  0.166667  0.000000     12.000000
  0.250000  0.250000  0.000000     12.000000
  0.333333  0.250000  0.000000     24.000000
  0.416667  0.250000  0.000000     24.000000
  0.500000  0.250000  0.000000     12.000000
  0.333333  0.333333  0.000000     12.000000
  0.416667  0.333333  0.000000     24.000000
  0.500000  0.333333  0.000000     12.000000
  0.416667  0.416667  0.000000     12.000000
  0.500000  0.416667  0.000000     12.000000
  0.500000  0.500000  0.000000      3.000000
  0.083333  0.083333  0.083333      8.000000
  0.166667  0.083333  0.083333     24.000000
  0.250000  0.083333  0.083333     24.000000
  0.333333  0.083333  0.083333     24.000000
  0.416667  0.083333  0.083333     24.000000
  0.500000  0.083333  0.083333     12.000000
  0.166667  0.166667  0.083333     24.000000
  0.250000  0.166667  0.083333     48.000000
  0.333333  0.166667  0.083333     48.000000
  0.416667  0.166667  0.083333     48.000000
  0.500000  0.166667  0.083333     24.000000
  0.250000  0.250000  0.083333     24.000000
  0.333333  0.250000  0.083333     48.000000
  0.416667  0.250000  0.083333     48.000000
  0.500000  0.250000  0.083333     24.000000
  0.333333  0.333333  0.083333     24.000000
  0.416667  0.333333  0.083333     48.000000
  0.500000  0.333333  0.083333     24.000000
  0.416667  0.416667  0.083333     24.000000
  0.500000  0.416667  0.083333     24.000000
  0.500000  0.500000  0.083333      6.000000
  0.166667  0.166667  0.166667      8.000000
  0.250000  0.166667  0.166667     24.000000
  0.333333  0.166667  0.166667     24.000000
  0.416667  0.166667  0.166667     24.000000
  0.500000  0.166667  0.166667     12.000000
  0.250000  0.250000  0.166667     24.000000
  0.333333  0.250000  0.166667     48.000000
  0.416667  0.250000  0.166667     48.000000
  0.500000  0.250000  0.166667     24.000000
  0.333333  0.333333  0.166667     24.000000
  0.416667  0.333333  0.166667     48.000000
[...]
  0.416667  0.333333  0.250000     48.000000
  0.500000  0.333333  0.250000     24.000000
  0.416667  0.416667  0.250000     24.000000
  0.500000  0.416667  0.250000     24.000000
  0.500000  0.500000  0.250000      6.000000
  0.333333  0.333333  0.333333      8.000000
  0.416667  0.333333  0.333333     24.000000
  0.500000  0.333333  0.333333     12.000000
  0.416667  0.416667  0.333333     24.000000
  0.500000  0.416667  0.333333     24.000000
  0.500000  0.500000  0.333333      6.000000
  0.416667  0.416667  0.416667      8.000000
  0.500000  0.416667  0.416667     12.000000
  0.500000  0.500000  0.416667      6.000000
  0.500000  0.500000  0.500000      1.000000

 Following cartesian coordinates:
            Coordinates               Weight
  0.000000  0.000000  0.000000      1.000000
  0.014004 -0.000000  0.000000      6.000000
  0.028008 -0.000000  0.000000      6.000000
  0.042013 -0.000000  0.000000      6.000000
  0.056017 -0.000000  0.000000      6.000000
  0.070021 -0.000000  0.000000      6.000000
  0.084025 -0.000000  0.000000      3.000000
  0.014004  0.014004  0.000000     12.000000
  0.028008  0.014004  0.000000     24.000000
  0.042013  0.014004  0.000000     24.000000
  0.056017  0.014004  0.000000     24.000000
  0.070021  0.014004  0.000000     24.000000
  0.084025  0.014004  0.000000     12.000000
  0.028008  0.028008  0.000000     12.000000
  0.042013  0.028008  0.000000     24.000000
  0.056017  0.028008  0.000000     24.000000
  0.070021  0.028008  0.000000     24.000000
  0.084025  0.028008  0.000000     12.000000
  0.042013  0.042013  0.000000     12.000000
  0.056017  0.042013  0.000000     24.000000
  0.070021  0.042013  0.000000     24.000000
  0.084025  0.042013  0.000000     12.000000
  0.056017  0.056017  0.000000     12.000000
  0.070021  0.056017  0.000000     24.000000
  0.084025  0.056017  0.000000     12.000000
  0.070021  0.070021  0.000000     12.000000
  0.084025  0.070021  0.000000     12.000000
  0.084025  0.084025  0.000000      3.000000
  0.014004  0.014004  0.014004      8.000000
  0.028008  0.014004  0.014004     24.000000
  0.042013  0.014004  0.014004     24.000000
  0.056017  0.014004  0.014004     24.000000
  0.070021  0.014004  0.014004     24.000000
  0.084025  0.014004  0.014004     12.000000
  0.028008  0.028008  0.014004     24.000000
  0.042013  0.028008  0.014004     48.000000
  0.056017  0.028008  0.014004     48.000000
  0.070021  0.028008  0.014004     48.000000
  0.084025  0.028008  0.014004     24.000000
  0.042013  0.042013  0.014004     24.000000
  0.056017  0.042013  0.014004     48.000000
  0.070021  0.042013  0.014004     48.000000
  0.084025  0.042013  0.014004     24.000000
  0.056017  0.056017  0.014004     24.000000
  0.070021  0.056017  0.014004     48.000000
  0.084025  0.056017  0.014004     24.000000
  0.070021  0.070021  0.014004     24.000000
  0.084025  0.070021  0.014004     24.000000
  0.084025  0.084025  0.014004      6.000000
  0.028008  0.028008  0.028008      8.000000
  0.042013  0.028008  0.028008     24.000000
  0.056017  0.028008  0.028008     24.000000
  0.070021  0.028008  0.028008     24.000000
  0.084025  0.028008  0.028008     12.000000
  0.042013  0.042013  0.028008     24.000000
[...]
   0.41666667  0.41666667  0.08333333       0.014
   0.50000000  0.41666667  0.08333333       0.014
   0.50000000  0.50000000  0.08333333       0.003
   0.16666667  0.16666667  0.16666667       0.005
   0.25000000  0.16666667  0.16666667       0.014
   0.33333333  0.16666667  0.16666667       0.014
   0.41666667  0.16666667  0.16666667       0.014
   0.50000000  0.16666667  0.16666667       0.007
   0.25000000  0.25000000  0.16666667       0.014
   0.33333333  0.25000000  0.16666667       0.028
   0.41666667  0.25000000  0.16666667       0.028
   0.50000000  0.25000000  0.16666667       0.014
   0.33333333  0.33333333  0.16666667       0.014
   0.41666667  0.33333333  0.16666667       0.028
[...]
   0.41666667  0.33333333  0.25000000       0.028
   0.50000000  0.33333333  0.25000000       0.014
   0.41666667  0.41666667  0.25000000       0.014
   0.50000000  0.41666667  0.25000000       0.014
   0.50000000  0.50000000  0.25000000       0.003
   0.33333333  0.33333333  0.33333333       0.005
   0.41666667  0.33333333  0.33333333       0.014
   0.50000000  0.33333333  0.33333333       0.007
   0.41666667  0.41666667  0.33333333       0.014
   0.50000000  0.41666667  0.33333333       0.014
   0.50000000  0.50000000  0.33333333       0.003
   0.41666667  0.41666667  0.41666667       0.005
   0.50000000  0.41666667  0.41666667       0.007
   0.50000000  0.50000000  0.41666667       0.003
   0.50000000  0.50000000  0.50000000       0.001

 position of ions in fractional coordinates (direct lattice)
   0.00000000  0.00000000  0.00000000
   0.00000000  0.50000000  0.50000000
   0.50000000  0.00000000  0.50000000
   0.50000000  0.50000000  0.00000000

 position of ions in cartesian coordinates  (Angst):
   0.00000000  0.00000000  0.00000000
   0.00000000  2.97529500  2.97529500
   2.97529500  0.00000000  2.97529500
   2.97529500  2.97529500  0.00000000

 k-point     1 :   0.0000 0.0000 0.0000  plane waves:    3071
 k-point     2 :   0.0833-0.0000 0.0000  plane waves:    3054
 k-point     3 :   0.1667-0.0000 0.0000  plane waves:    3070
 k-point     4 :   0.2500-0.0000 0.0000  plane waves:    3054
 k-point     5 :   0.3333-0.0000 0.0000  plane waves:    3090
 k-point     6 :   0.4167-0.0000 0.0000  plane waves:    3086
 k-point     7 :   0.5000-0.0000 0.0000  plane waves:    3082
 k-point     8 :   0.0833 0.0833 0.0000  plane waves:    3065
 k-point     9 :   0.1667 0.0833 0.0000  plane waves:    3066
 k-point    10 :   0.2500 0.0833 0.0000  plane waves:    3070
 k-point    11 :   0.3333 0.0833 0.0000  plane waves:    3081
 k-point    12 :   0.4167 0.0833 0.0000  plane waves:    3089
 k-point    13 :   0.5000 0.0833 0.0000  plane waves:    3072
 k-point    14 :   0.1667 0.1667 0.0000  plane waves:    3065
 k-point    15 :   0.2500 0.1667 0.0000  plane waves:    3073
 k-point    16 :   0.3333 0.1667 0.0000  plane waves:    3081
 k-point    17 :   0.4167 0.1667 0.0000  plane waves:    3066
 k-point    18 :   0.5000 0.1667 0.0000  plane waves:    3068
 k-point    19 :   0.2500 0.2500 0.0000  plane waves:    3063
 k-point    20 :   0.3333 0.2500 0.0000  plane waves:    3076
 k-point    21 :   0.4167 0.2500 0.0000  plane waves:    3076
 k-point    22 :   0.5000 0.2500 0.0000  plane waves:    3090
 k-point    23 :   0.3333 0.3333 0.0000  plane waves:    3069
 k-point    24 :   0.4167 0.3333 0.0000  plane waves:    3089
 k-point    25 :   0.5000 0.3333 0.0000  plane waves:    3088
 k-point    26 :   0.4167 0.4167 0.0000  plane waves:    3098
 k-point    27 :   0.5000 0.4167 0.0000  plane waves:    3088
 k-point    28 :   0.5000 0.5000 0.0000  plane waves:    3136
 k-point    29 :   0.0833 0.0833 0.0833  plane waves:    3071
 k-point    30 :   0.1667 0.0833 0.0833  plane waves:    3066
 k-point    31 :   0.2500 0.0833 0.0833  plane waves:    3083
 k-point    32 :   0.3333 0.0833 0.0833  plane waves:    3084
 k-point    33 :   0.4167 0.0833 0.0833  plane waves:    3080
 k-point    34 :   0.5000 0.0833 0.0833  plane waves:    3068
 k-point    35 :   0.1667 0.1667 0.0833  plane waves:    3075
 k-point    36 :   0.2500 0.1667 0.0833  plane waves:    3079
 k-point    37 :   0.3333 0.1667 0.0833  plane waves:    3078
 k-point    38 :   0.4167 0.1667 0.0833  plane waves:    3063
 k-point    39 :   0.5000 0.1667 0.0833  plane waves:    3078
 k-point    40 :   0.2500 0.2500 0.0833  plane waves:    3079
 k-point    41 :   0.3333 0.2500 0.0833  plane waves:    3093
 k-point    42 :   0.4167 0.2500 0.0833  plane waves:    3084
 k-point    43 :   0.5000 0.2500 0.0833  plane waves:    3084
 k-point    44 :   0.3333 0.3333 0.0833  plane waves:    3082
 k-point    45 :   0.4167 0.3333 0.0833  plane waves:    3085
 k-point    46 :   0.5000 0.3333 0.0833  plane waves:    3080
 k-point    47 :   0.4167 0.4167 0.0833  plane waves:    3098
 k-point    48 :   0.5000 0.4167 0.0833  plane waves:    3092
 k-point    49 :   0.5000 0.5000 0.0833  plane waves:    3100
 k-point    50 :   0.1667 0.1667 0.1667  plane waves:    3092
 k-point    51 :   0.2500 0.1667 0.1667  plane waves:    3087
 k-point    52 :   0.3333 0.1667 0.1667  plane waves:    3097
 k-point    53 :   0.4167 0.1667 0.1667  plane waves:    3075
 k-point    54 :   0.5000 0.1667 0.1667  plane waves:    3066
 k-point    55 :   0.2500 0.2500 0.1667  plane waves:    3093
 k-point    56 :   0.3333 0.2500 0.1667  plane waves:    3085
 k-point    57 :   0.4167 0.2500 0.1667  plane waves:    3090
 k-point    58 :   0.5000 0.2500 0.1667  plane waves:    3088
 k-point    59 :   0.3333 0.3333 0.1667  plane waves:    3093
 k-point    60 :   0.4167 0.3333 0.1667  plane waves:    3098
[...]
 k-point    70 :   0.4167 0.3333 0.2500  plane waves:    3096
 k-point    71 :   0.5000 0.3333 0.2500  plane waves:    3090
 k-point    72 :   0.4167 0.4167 0.2500  plane waves:    3088
 k-point    73 :   0.5000 0.4167 0.2500  plane waves:    3096
 k-point    74 :   0.5000 0.5000 0.2500  plane waves:    3072
 k-point    75 :   0.3333 0.3333 0.3333  plane waves:    3085
 k-point    76 :   0.4167 0.3333 0.3333  plane waves:    3086
 k-point    77 :   0.5000 0.3333 0.3333  plane waves:    3092
 k-point    78 :   0.4167 0.4167 0.3333  plane waves:    3093
 k-point    79 :   0.5000 0.4167 0.3333  plane waves:    3086
 k-point    80 :   0.5000 0.5000 0.3333  plane waves:    3092
 k-point    81 :   0.4167 0.4167 0.4167  plane waves:    3094
 k-point    82 :   0.5000 0.4167 0.4167  plane waves:    3098
 k-point    83 :   0.5000 0.5000 0.4167  plane waves:    3100
 k-point    84 :   0.5000 0.5000 0.5000  plane waves:    3112

 maximum and minimum number of plane-waves per node :      3136     3054

 maximum number of plane-waves:      3136
 maximum index in each direction:
   IXMAX=    9   IYMAX=    9   IZMAX=    9
   IXMIN=   -9   IYMIN=   -9   IZMIN=   -9

 serial   3D FFT for wavefunctions
 parallel 3D FFT for charge:
    minimum data exchange during FFTs selected (reduces bandwidth)

 Broyden mixing: mesh for mixing (old mesh)
   NGX = 19   NGY = 19   NGZ = 19
  (NGX  = 56   NGY  = 56   NGZ  = 56)
  gives a total of   6859 points

 charge density for first step will be calculated from the start-wavefunctions

 Maximum index for augmentation-charges          177 (set IRDMAX)

 initial charge from wavefunction
 First call to EWALD:  gamma=   0.298
 Maximum number of real-space cells 3x 3x 3
 Maximum number of reciprocal cells 3x 3x 3

--------------------------------------- Ionic step        1  -------------------------------------------

--------------------------------------- Iteration      1(   1)  ---------------------------------------

 eigenvalue-minimisations  :  9984
 total energy-change (2. order) :-0.1948227E+00  (-0.8565606E-07)
 number of electron      32.0000213 magnetization
 augmentation part       -2.5340562 magnetization

 Broyden mixing:
  rms(total) = 0.90114E-04    rms(broyden)= 0.89998E-04
  rms(prec ) = 0.16313E-03
  weight for this iteration     100.00

 Free energy of the ion-electron system (eV)
  alpha Z        PSCENC =        11.22279371
  Ewald energy   TEWEN  =     -1420.14371027
  -Hartree energ DENC   =      -680.71383050
  -exchange      EXHF   =         0.00000000
  -V(xc)+E(xc)   XCENC  =       116.62635806
  PAW double counting   =      1872.85003326    -1890.88459770
  entropy T*S    EENTRO =        -0.00000000
  eigenvalues    EBANDS =      -325.25656919
  atomic energy  EATOM  =      2316.10469990
  Solvation  Ediel_sol  =         0.00000000
  free energy    TOTEN  =        -0.19482272 eV

  energy without entropy =       -0.19482272  energy(sigma->0) =       -0.19482272

--------------------------------------- Iteration      1(   2)  ---------------------------------------

 eigenvalue-minimisations  : 10224
 total energy-change (2. order) :-0.1732551E-06  (-0.7506706E-08)
 number of electron      32.0000213 magnetization
 augmentation part       -2.5340562 magnetization

 Free energy of the ion-electron system (eV)
  alpha Z        PSCENC =        11.22279371
  Ewald energy   TEWEN  =     -1420.14371027
  -Hartree energ DENC   =      -680.71805913
  -exchange      EXHF   =         0.00000000
  -V(xc)+E(xc)   XCENC  =       116.62662886
  PAW double counting   =      1872.87620121    -1890.91095040
  entropy T*S    EENTRO =        -0.00000000
  eigenvalues    EBANDS =      -325.25242677
  atomic energy  EATOM  =      2316.10469990
  Solvation  Ediel_sol  =         0.00000000
  free energy    TOTEN  =        -0.19482289 eV

  energy without entropy =       -0.19482289  energy(sigma->0) =       -0.19482289

 average (electrostatic) potential at core
  the test charge radii are     0.8078
  (the norm of the test charge is              1.0000)
       1-152.2306       2-152.2306       3-152.2306       4-152.2306

 E-fermi :  -6.1962     XC(G=0):  -5.5174     alpha+bet : -3.5908

 val. band max:       -6.4259518622   @ k =   0.0000   0.0000   0.0000
 cond. band min:       1.9785558846   @ k =   0.0000   0.0000   0.0000
 fundamental gap:      8.4045077468
 Fermi energy:        -6.1962244678

 k-point     1 :       0.0000    0.0000    0.0000
  band No.  band energies     occupation
      1     -20.7316      2.00000
      2     -20.6551      2.00000
      3     -20.6551      2.00000
      4     -20.6551      2.00000
      5      -6.9501      2.00000
      6      -6.9501      2.00000
      7      -6.9501      2.00000
      8      -6.6166      2.00000
      9      -6.6166      2.00000
     10      -6.6166      2.00000
     11      -6.6166      2.00000
     12      -6.6166      2.00000
     13      -6.6166      2.00000
     14      -6.4260      2.00000
     15      -6.4260      2.00000
     16      -6.4260      2.00000
     17       1.9786      0.00000
     18       4.9826      0.00000
     19       4.9826      0.00000
     20       4.9826      0.00000
     21       6.4964      0.00000
     22       6.4964      0.00000
     23       6.4964      0.00000
     24       7.0230      0.00000
     25       7.0230      0.00000
     26       7.0230      0.00000
     27       9.0813      0.00000
     28       9.0813      0.00000
     29       9.0813      0.00000
     30      11.0417      0.00000
     31      11.0417      0.00000
     32      11.0417      0.00000
     33      11.0417      0.00000
     34      11.0417      0.00000
     35      11.0417      0.00000
     36      11.0767      0.00000
     37      11.0767      0.00000
     38      12.5464      0.00000
     39      12.5464      0.00000
     40      12.5464      0.00000
     41      12.6364      0.00000
     42      12.7920      0.00000
     43      12.7920      0.00000
     44      12.7920      0.00000
     45      13.0010      0.00000
     46      13.0010      0.00000
     47      13.0010      0.00000
     48      13.0010      0.00000

[...]

 k-point    84 :       0.5000    0.5000    0.5000
  band No.  band energies     occupation
      1     -20.6739      2.00000
      2     -20.6739      2.00000
      3     -20.6739      2.00000
      4     -20.6739      2.00000
      5      -6.9994      2.00000
      6      -6.9994      2.00000
      7      -6.9994      2.00000
      8      -6.9994      2.00000
      9      -6.4922      2.00000
     10      -6.4922      2.00000
     11      -6.4922      2.00000
     12      -6.4922      2.00000
     13      -6.4922      2.00000
     14      -6.4922      2.00000
     15      -6.4922      2.00000
     16      -6.4922      2.00000
     17       4.7698      0.00000
     18       4.7698      0.00000
     19       4.7698      0.00000
     20       4.7698      0.00000
     21       5.8363      0.00000
     22       5.8363      0.00000
     23       5.8363      0.00000
     24       5.8363      0.00000
     25       8.7151      0.00000
     26       8.7151      0.00000
     27       8.7151      0.00000
     28       8.7151      0.00000
     29       8.7151      0.00000
     30       8.7151      0.00000
     31       8.7151      0.00000
     32       8.7151      0.00000
     33      12.0917      0.00000
     34      12.0917      0.00000
     35      12.0917      0.00000
     36      12.0917      0.00000
     37      12.5055      0.00000
     38      12.5055      0.00000
     39      12.5055      0.00000
     40      12.5055      0.00000
     41      12.5055      0.00000
     42      12.5055      0.00000
     43      12.5055      0.00000
     44      12.5055      0.00000
     45      12.9835      0.00000
     46      12.9835      0.00000
     47      12.9835      0.00000
     48      12.9835      0.00000

 soft charge-density along one line, spin component           1
         0         1         2         3         4         5         6         7         8         9
 total charge-density along one line

------------------------ aborting loop because EDIFF is reached ----------------------------------------

  FORCE on cell =-STRESS in cart. coord.  units (eV):
  Direction    XX          YY          ZZ          XY          YZ          ZX
  Alpha Z    11.22279    11.22279    11.22279
  Ewald    -473.38144  -473.38144  -473.38144    -0.00000     0.00000     0.00000
  Hartree   226.90747   226.90747   226.90747    -0.00000    -0.00000    -0.00000
  E(xc)    -124.02563  -124.02563  -124.02563     0.00000     0.00000     0.00000
  Local    -763.92414  -763.92414  -763.92414    -0.00000    -0.00000    -0.00000
  n-local   626.63594   626.90863   627.05708    -0.05812    -0.06159    -0.03896
  augment   -93.85598   -93.85598   -93.85598     0.00000     0.00000     0.00000
  Kinetic   589.58397   590.22507   590.57859    -0.14047    -0.13476    -0.08874
  Fock        0.00000     0.00000     0.00000     0.00000     0.00000     0.00000
  Total      -0.06051    -0.06051    -0.06051    -0.00000    -0.00000    -0.00000
  in kB      -0.46012    -0.46012    -0.46012    -0.00000    -0.00000    -0.00000

 VOLUME and BASIS-vectors are now :
  energy-cutoff  :      346.33
  volume of cell :      210.71
      direct lattice vectors                 reciprocal lattice vectors
     5.950590000  0.000000000  0.000000000     0.168050563 -0.000000000  0.000000000
     0.000000000  5.950590000  0.000000000     0.000000000  0.168050563  0.000000000
     0.000000000  0.000000000  5.950590000    -0.000000000 -0.000000000  0.168050563

  length of vectors
     5.950590000  5.950590000  5.950590000     0.168050563  0.168050563  0.168050563

 FORCES acting on ions
    electron-ion (+dipol)            ewald-force                    non-local-force                 convergence-correction
   0.195E-14 0.465E-14 0.314E-14   -.363E-14 -.119E-14 -.554E-15   0.241E-25 -.159E-24 0.521E-25   -.748E-14 0.234E-14 -.582E-14
   0.273E-14 0.484E-13 0.544E-13   -.348E-14 0.297E-14 0.154E-14   -.117E-24 0.113E-24 -.843E-26   -.108E-13 -.565E-14 -.112E-13
   0.584E-13 0.282E-14 0.367E-11   0.393E-14 -.272E-14 0.654E-15   0.658E-25 -.204E-25 0.266E-24   -.360E-14 0.209E-14 -.118E-13
   0.591E-13 0.170E-11 0.116E-11   0.408E-14 0.145E-14 -.164E-14   -.579E-25 0.121E-24 0.253E-24   -.600E-14 -.562E-14 -.327E-14
   0.122E-12 0.176E-11 0.488E-11   0.897E-15 0.508E-15 0.721E-18   -.849E-25 0.541E-25 0.562E-24   -.279E-13 -.684E-14 -.321E-13

 POSITION                                       TOTAL-FORCE (eV/Angst)
      0.00000      0.00000      0.00000         0.000000      0.000000     -0.000000
      0.00000      2.97530      2.97530         0.000000     -0.000000      0.000000
      2.97530      0.00000      2.97530        -0.000000      0.000000      0.000000
      2.97530      2.97530      0.00000        -0.000000     -0.000000     -0.000000
    total drift:                                0.000000      0.000000      0.000000

  FREE ENERGIE OF THE ION-ELECTRON SYSTEM (eV)
  free  energy   TOTEN  =        -0.19482289 eV

  energy  without entropy=       -0.19482289  energy(sigma->0) =       -0.19482289

 writing wavefunctions