 vasp.6.4.3 19Mar24 (build Jun 26 2024 13:02:28) complex

 executed on             LinuxIFC date 2025.08.08  18:42:11

 INCAR:
   ENCUT = 298.1589
   IBRION = -1
   ISMEAR = 0
   ISYM = 2
   LCHARG = True
   LWAVE = True
   SIGMA = 0.05
   SYSTEM = Sr

 POTCAR:  PAW_PBE Sr_sv 07Sep2000
|           W    W    AA    RRRRR   N    N  II  N    N   GGGG   !!!           |
|           W    W   A  A   R    R  NN   N  II  NN   N  G    G  !!!           |
|           W    W  A    A  R    R  N N  N  II  N N  N  G       !!!           |
|           W WW W  AAAAAA  RRRRR   N  N N  II  N  N N  G  GGG   !            |
|           WW  WW  A    A  R   R   N   NN  II  N   NN  G    G                |
|           W    W  A    A  R    R  N    N  II  N    N   GGGG   !!!           |
|     For optimal performance we recommend to set                             |
|       NCORE = 2 up to number-of-cores-per-socket                            |
|     This setting can greatly improve the performance of VASP for DFT.       |
|     The default, NCORE=1 might be grossly inefficient on modern             |
|     multi-core architectures or massively parallel machines. Do your        |
|     Unfortunately you need to use the default for GW and RPA                |
|     calculations (for HF NCORE is supported but not extensively tested      |
|     yet).                                                                   |

 POTCAR:  PAW_PBE Sr_sv 07Sep2000
   VRHFIN =Sr: 4s4p5s

   TITEL  = PAW_PBE Sr_sv 07Sep2000
   POMASS =   87.620; ZVAL   =   10.000    mass and valenz
   ENMAX  =  229.353; ENMIN  =  172.014 eV

PAW_PBE Sr_sv 07Sep2000                 :

 POSCAR: Sr4
  positions in direct lattice

 exchange-correlation table for PE
   RHO(1)=    0.500       N(1)  =     2000
   RHO(2)=  100.500       N(2)  =     4000

 ion  position               nearest neighbor table
   1  0.000  0.000  0.000-   2 4.26   3 4.26   2 4.26   3 4.26   2 4.26   4 4.26   2 4.26   3 4.26
                             4 4.26   3 4.26   4 4.26   4 4.26
   2  0.000  0.500  0.500-   1 4.26   4 4.26   1 4.26   4 4.26   1 4.26   3 4.26   1 4.26   3 4.26
                             4 4.26   4 4.26   3 4.26   3 4.26
   3  0.500  0.000  0.500-   1 4.26   4 4.26   1 4.26   4 4.26   2 4.26   4 4.26   4 4.26   1 4.26
                             2 4.26   1 4.26   2 4.26   2 4.26
   4  0.500  0.500  0.000-   2 4.26   3 4.26   2 4.26   3 4.26   1 4.26   3 4.26   3 4.26   1 4.26
                             2 4.26   2 4.26   1 4.26   1 4.26

  LATTYP: Found a simple cubic cell.
 ALAT       =     6.0196900000

  Lattice vectors:

 A1 = (   6.0196900000,   0.0000000000,   0.0000000000)
 A2 = (   0.0000000000,   6.0196900000,   0.0000000000)
 A3 = (   0.0000000000,   0.0000000000,   6.0196900000)

Analysis of symmetry for initial positions (statically):
 Subroutine PRICEL returns following result:

  LATTYP: Found a face centered cubic cell.
 ALAT       =     6.0196900000

[...]

   4 primitive cells build up your supercell.

 Routine SETGRP: Setting up the symmetry group for a
 simple cubic supercell.

 Subroutine GETGRP returns: Found 48 space group operations
 (whereof 48 operations were pure point group operations)
 out of a pool of 48 trial point group operations.

The static configuration has the point symmetry O_h .

Analysis of symmetry for dynamics (positions and initial velocities):
 Subroutine PRICEL returns following result:

  LATTYP: Found a face centered cubic cell.
 ALAT       =     6.0196900000

  Lattice vectors:

 A1 = (   3.0098450000,  -3.0098450000,   0.0000000000)
 A2 = (   3.0098450000,   0.0000000000,   3.0098450000)
 A3 = (   0.0000000000,  -3.0098450000,   3.0098450000)

   4 primitive cells build up your supercell.

 Routine SETGRP: Setting up the symmetry group for a
 simple cubic supercell.

 Subroutine GETGRP returns: Found 48 space group operations
 (whereof 48 operations were pure point group operations)
 out of a pool of 48 trial point group operations.

The dynamic configuration has the point symmetry O_h .

 Subroutine INISYM returns: Found 48 space group operations
 (whereof 48 operations are pure point group operations),
 and found     4 'primitive' translations

                                     Primitive cell

  volume of cell :      54.5334

  direct lattice vectors                    reciprocal lattice vectors
     3.009845000 -3.009845000  0.000000000     0.166121511 -0.166121511 -0.166121511
     3.009845000  0.000000000  3.009845000     0.166121511  0.166121511  0.166121511
     0.000000000 -3.009845000  3.009845000    -0.166121511 -0.166121511  0.166121511

  length of vectors
     4.256563620  4.256563620  4.256563620     0.287730898  0.287730898  0.287730898

  position of ions in fractional coordinates (direct lattice)
     0.000000000  0.000000000  0.000000000

  ion indices of the primitive-cell ions
   primitive index   ion index
                 1           1

 KPOINTS: Automatic kpoint scheme

Automatic generation of k-mesh.
 Grid dimensions read from file:
 generate k-points for:   12   12   12

 Generating k-lattice:

  Cartesian coordinates                     Fractional coordinates (reciprocal lattice)
     0.013843459 -0.000000000  0.000000000     0.083333333 -0.000000000  0.000000000
     0.000000000  0.013843459  0.000000000     0.000000000  0.083333333  0.000000000
    -0.000000000 -0.000000000  0.013843459    -0.000000000 -0.000000000  0.083333333

  Length of vectors
     0.013843459  0.013843459  0.013843459

  Shift w.r.t. Gamma in fractional coordinates (k-lattice)
     0.000000000  0.000000000  0.000000000

 Subroutine IBZKPT returns following result:

 Found     84 irreducible k-points:

 Following reciprocal coordinates:
            Coordinates               Weight
  0.000000  0.000000  0.000000      1.000000
  0.083333 -0.000000  0.000000      6.000000
  0.166667  0.000000  0.000000      6.000000
  0.250000 -0.000000  0.000000      6.000000
  0.333333 -0.000000  0.000000      6.000000
  0.416667 -0.000000  0.000000      6.000000
  0.500000 -0.000000  0.000000      3.000000
  0.083333  0.083333  0.000000     12.000000
  0.166667  0.083333  0.000000     24.000000
  0.250000  0.083333  0.000000     24.000000
  0.333333  0.083333  0.000000     24.000000
  0.416667  0.083333  0.000000     24.000000
  0.500000  0.083333  0.000000     12.000000
  0.166667  0.166667  0.000000     12.000000
  0.250000  0.166667  0.000000     24.000000
  0.333333  0.166667  0.000000     24.000000
  0.416667  0.166667  0.000000     24.000000
  0.500000  0.166667  0.000000     12.000000
  0.250000  0.250000  0.000000     12.000000
  0.333333  0.250000  0.000000     24.000000
  0.416667  0.250000  0.000000     24.000000
  0.500000  0.250000  0.000000     12.000000
  0.333333  0.333333  0.000000     12.000000
  0.416667  0.333333  0.000000     24.000000
  0.500000  0.333333  0.000000     12.000000
  0.416667  0.416667  0.000000     12.000000
  0.500000  0.416667  0.000000     12.000000
  0.500000  0.500000  0.000000      3.000000
  0.083333  0.083333  0.083333      8.000000
  0.166667  0.083333  0.083333     24.000000
  0.250000  0.083333  0.083333     24.000000
  0.333333  0.083333  0.083333     24.000000
  0.416667  0.083333  0.083333     24.000000
  0.500000  0.083333  0.083333     12.000000
  0.166667  0.166667  0.083333     24.000000
  0.250000  0.166667  0.083333     48.000000
  0.333333  0.166667  0.083333     48.000000
  0.416667  0.166667  0.083333     48.000000
  0.500000  0.166667  0.083333     24.000000
  0.250000  0.250000  0.083333     24.000000
  0.333333  0.250000  0.083333     48.000000
  0.416667  0.250000  0.083333     48.000000
  0.500000  0.250000  0.083333     24.000000
  0.333333  0.333333  0.083333     24.000000
  0.416667  0.333333  0.083333     48.000000
  0.500000  0.333333  0.083333     24.000000
  0.416667  0.416667  0.083333     24.000000
  0.500000  0.416667  0.083333     24.000000
  0.500000  0.500000  0.083333      6.000000
  0.166667  0.166667  0.166667      8.000000
  0.250000  0.166667  0.166667     24.000000
  0.333333  0.166667  0.166667     24.000000
  0.416667  0.166667  0.166667     24.000000
  0.500000  0.166667  0.166667     12.000000
  0.250000  0.250000  0.166667     24.000000
  0.333333  0.250000  0.166667     48.000000
  0.416667  0.250000  0.166667     48.000000
  0.500000  0.250000  0.166667     24.000000
  0.333333  0.333333  0.166667     24.000000
  0.416667  0.333333  0.166667     48.000000
[...]
  0.416667  0.333333  0.250000     48.000000
  0.500000  0.333333  0.250000     24.000000
  0.416667  0.416667  0.250000     24.000000
  0.500000  0.416667  0.250000     24.000000
  0.500000  0.500000  0.250000      6.000000
  0.333333  0.333333  0.333333      8.000000
  0.416667  0.333333  0.333333     24.000000
  0.500000  0.333333  0.333333     12.000000
  0.416667  0.416667  0.333333     24.000000
  0.500000  0.416667  0.333333     24.000000
  0.500000  0.500000  0.333333      6.000000
  0.416667  0.416667  0.416667      8.000000
  0.500000  0.416667  0.416667     12.000000
  0.500000  0.500000  0.416667      6.000000
  0.500000  0.500000  0.500000      1.000000

 Following cartesian coordinates:
            Coordinates               Weight
  0.000000  0.000000  0.000000      1.000000
  0.013843 -0.000000  0.000000      6.000000
  0.027687 -0.000000  0.000000      6.000000
  0.041530 -0.000000  0.000000      6.000000
  0.055374 -0.000000  0.000000      6.000000
  0.069217 -0.000000  0.000000      6.000000
  0.083061 -0.000000  0.000000      3.000000
  0.013843  0.013843  0.000000     12.000000
  0.027687  0.013843  0.000000     24.000000
  0.041530  0.013843  0.000000     24.000000
  0.055374  0.013843  0.000000     24.000000
  0.069217  0.013843  0.000000     24.000000
  0.083061  0.013843  0.000000     12.000000
  0.027687  0.027687  0.000000     12.000000
  0.041530  0.027687  0.000000     24.000000
  0.055374  0.027687  0.000000     24.000000
  0.069217  0.027687  0.000000     24.000000
  0.083061  0.027687  0.000000     12.000000
  0.041530  0.041530  0.000000     12.000000
  0.055374  0.041530  0.000000     24.000000
  0.069217  0.041530  0.000000     24.000000
  0.083061  0.041530  0.000000     12.000000
  0.055374  0.055374  0.000000     12.000000
  0.069217  0.055374  0.000000     24.000000
  0.083061  0.055374  0.000000     12.000000
  0.069217  0.069217  0.000000     12.000000
  0.083061  0.069217  0.000000     12.000000
  0.083061  0.083061  0.000000      3.000000
  0.013843  0.013843  0.013843      8.000000
  0.027687  0.013843  0.013843     24.000000
  0.041530  0.013843  0.013843     24.000000
  0.055374  0.013843  0.013843     24.000000
  0.069217  0.013843  0.013843     24.000000
  0.083061  0.013843  0.013843     12.000000
  0.027687  0.027687  0.013843     24.000000
  0.041530  0.027687  0.013843     48.000000
  0.055374  0.027687  0.013843     48.000000
  0.069217  0.027687  0.013843     48.000000
  0.083061  0.027687  0.013843     24.000000
  0.041530  0.041530  0.013843     24.000000
  0.055374  0.041530  0.013843     48.000000
  0.069217  0.041530  0.013843     48.000000
  0.083061  0.041530  0.013843     24.000000
[...]
   0.41666667  0.41666667  0.08333333       0.014
   0.50000000  0.41666667  0.08333333       0.014
   0.50000000  0.50000000  0.08333333       0.003
   0.16666667  0.16666667  0.16666667       0.005
   0.25000000  0.16666667  0.16666667       0.014
   0.33333333  0.16666667  0.16666667       0.014
   0.41666667  0.16666667  0.16666667       0.014
   0.50000000  0.16666667  0.16666667       0.007
   0.25000000  0.25000000  0.16666667       0.014
   0.33333333  0.25000000  0.16666667       0.028
   0.41666667  0.25000000  0.16666667       0.028
   0.50000000  0.25000000  0.16666667       0.014
   0.33333333  0.33333333  0.16666667       0.014
   0.41666667  0.33333333  0.16666667       0.028
[...]
   0.41666667  0.33333333  0.25000000       0.028
   0.50000000  0.33333333  0.25000000       0.014
   0.41666667  0.41666667  0.25000000       0.014
   0.50000000  0.41666667  0.25000000       0.014
   0.50000000  0.50000000  0.25000000       0.003
   0.33333333  0.33333333  0.33333333       0.005
   0.41666667  0.33333333  0.33333333       0.014
   0.50000000  0.33333333  0.33333333       0.007
   0.41666667  0.41666667  0.33333333       0.014
   0.50000000  0.41666667  0.33333333       0.014
   0.50000000  0.50000000  0.33333333       0.003
   0.41666667  0.41666667  0.41666667       0.005
   0.50000000  0.41666667  0.41666667       0.007
   0.50000000  0.50000000  0.41666667       0.003
   0.50000000  0.50000000  0.50000000       0.001

 position of ions in fractional coordinates (direct lattice)
   0.00000000  0.00000000  0.00000000
   0.00000000  0.50000000  0.50000000
   0.50000000  0.00000000  0.50000000
   0.50000000  0.50000000  0.00000000

 position of ions in cartesian coordinates  (Angst):
   0.00000000  0.00000000  0.00000000
   0.00000000  3.00984500  3.00984500
   3.00984500  0.00000000  3.00984500
   3.00984500  3.00984500  0.00000000

 k-point     1 :   0.0000 0.0000 0.0000  plane waves:    2517
 k-point     2 :   0.0833-0.0000 0.0000  plane waves:    2537
 k-point     3 :   0.1667 0.0000 0.0000  plane waves:    2557
 k-point     4 :   0.2500-0.0000 0.0000  plane waves:    2545
 k-point     5 :   0.3333-0.0000 0.0000  plane waves:    2561
 k-point     6 :   0.4167-0.0000 0.0000  plane waves:    2557
 k-point     7 :   0.5000-0.0000 0.0000  plane waves:    2560
 k-point     8 :   0.0833 0.0833 0.0000  plane waves:    2536
 k-point     9 :   0.1667 0.0833 0.0000  plane waves:    2550
 k-point    10 :   0.2500 0.0833 0.0000  plane waves:    2556
 k-point    11 :   0.3333 0.0833 0.0000  plane waves:    2559
 k-point    12 :   0.4167 0.0833 0.0000  plane waves:    2547
 k-point    13 :   0.5000 0.0833 0.0000  plane waves:    2550
 k-point    14 :   0.1667 0.1667 0.0000  plane waves:    2558
 k-point    15 :   0.2500 0.1667 0.0000  plane waves:    2555
 k-point    16 :   0.3333 0.1667 0.0000  plane waves:    2564
 k-point    17 :   0.4167 0.1667 0.0000  plane waves:    2546
 k-point    18 :   0.5000 0.1667 0.0000  plane waves:    2544
 k-point    19 :   0.2500 0.2500 0.0000  plane waves:    2556
 k-point    20 :   0.3333 0.2500 0.0000  plane waves:    2559
 k-point    21 :   0.4167 0.2500 0.0000  plane waves:    2563
 k-point    22 :   0.5000 0.2500 0.0000  plane waves:    2562
 k-point    23 :   0.3333 0.3333 0.0000  plane waves:    2562
 k-point    24 :   0.4167 0.3333 0.0000  plane waves:    2559
 k-point    25 :   0.5000 0.3333 0.0000  plane waves:    2560
 k-point    26 :   0.4167 0.4167 0.0000  plane waves:    2542
 k-point    27 :   0.5000 0.4167 0.0000  plane waves:    2542
 k-point    28 :   0.5000 0.5000 0.0000  plane waves:    2544
 k-point    29 :   0.0833 0.0833 0.0833  plane waves:    2544
 k-point    30 :   0.1667 0.0833 0.0833  plane waves:    2553
 k-point    31 :   0.2500 0.0833 0.0833  plane waves:    2558
 k-point    32 :   0.3333 0.0833 0.0833  plane waves:    2557
 k-point    33 :   0.4167 0.0833 0.0833  plane waves:    2546
 k-point    34 :   0.5000 0.0833 0.0833  plane waves:    2552
 k-point    35 :   0.1667 0.1667 0.0833  plane waves:    2559
 k-point    36 :   0.2500 0.1667 0.0833  plane waves:    2562
 k-point    37 :   0.3333 0.1667 0.0833  plane waves:    2563
 k-point    38 :   0.4167 0.1667 0.0833  plane waves:    2553
 k-point    39 :   0.5000 0.1667 0.0833  plane waves:    2548
 k-point    40 :   0.2500 0.2500 0.0833  plane waves:    2567
 k-point    41 :   0.3333 0.2500 0.0833  plane waves:    2552
 k-point    42 :   0.4167 0.2500 0.0833  plane waves:    2554
 k-point    43 :   0.5000 0.2500 0.0833  plane waves:    2554
 k-point    44 :   0.3333 0.3333 0.0833  plane waves:    2553
 k-point    45 :   0.4167 0.3333 0.0833  plane waves:    2558
 k-point    46 :   0.5000 0.3333 0.0833  plane waves:    2550
 k-point    47 :   0.4167 0.4167 0.0833  plane waves:    2550
 k-point    48 :   0.5000 0.4167 0.0833  plane waves:    2550
 k-point    49 :   0.5000 0.5000 0.0833  plane waves:    2528
 k-point    50 :   0.1667 0.1667 0.1667  plane waves:    2557
 k-point    51 :   0.2500 0.1667 0.1667  plane waves:    2562
 k-point    52 :   0.3333 0.1667 0.1667  plane waves:    2544
 k-point    53 :   0.4167 0.1667 0.1667  plane waves:    2545
 k-point    54 :   0.5000 0.1667 0.1667  plane waves:    2556
 k-point    55 :   0.2500 0.2500 0.1667  plane waves:    2559
 k-point    56 :   0.3333 0.2500 0.1667  plane waves:    2549
 k-point    57 :   0.4167 0.2500 0.1667  plane waves:    2548
 k-point    58 :   0.5000 0.2500 0.1667  plane waves:    2546
 k-point    59 :   0.3333 0.3333 0.1667  plane waves:    2544
 k-point    60 :   0.4167 0.3333 0.1667  plane waves:    2548
[...]
 k-point    70 :   0.4167 0.3333 0.2500  plane waves:    2537
 k-point    71 :   0.5000 0.3333 0.2500  plane waves:    2542
 k-point    72 :   0.4167 0.4167 0.2500  plane waves:    2542
 k-point    73 :   0.5000 0.4167 0.2500  plane waves:    2536
 k-point    74 :   0.5000 0.5000 0.2500  plane waves:    2528
 k-point    75 :   0.3333 0.3333 0.3333  plane waves:    2533
 k-point    76 :   0.4167 0.3333 0.3333  plane waves:    2534
 k-point    77 :   0.5000 0.3333 0.3333  plane waves:    2536
 k-point    78 :   0.4167 0.4167 0.3333  plane waves:    2533
 k-point    79 :   0.5000 0.4167 0.3333  plane waves:    2526
 k-point    80 :   0.5000 0.5000 0.3333  plane waves:    2516
 k-point    81 :   0.4167 0.4167 0.4167  plane waves:    2527
 k-point    82 :   0.5000 0.4167 0.4167  plane waves:    2528
 k-point    83 :   0.5000 0.5000 0.4167  plane waves:    2516
 k-point    84 :   0.5000 0.5000 0.5000  plane waves:    2512

 maximum and minimum number of plane-waves per node :      2567     2512

 maximum number of plane-waves:      2567
 maximum index in each direction:
   IXMAX=    8   IYMAX=    8   IZMAX=    8
   IXMIN=   -8   IYMIN=   -8   IZMIN=   -8

 serial   3D FFT for wavefunctions
 parallel 3D FFT for charge:
    minimum data exchange during FFTs selected (reduces bandwidth)

 Broyden mixing: mesh for mixing (old mesh)
   NGX = 17   NGY = 17   NGZ = 17
  (NGX  = 56   NGY  = 56   NGZ  = 56)
  gives a total of   4913 points

 charge density for first step will be calculated from the start-wavefunctions

 Maximum index for augmentation-charges          570 (set IRDMAX)

 initial charge from wavefunction
 First call to EWALD:  gamma=   0.294
 Maximum number of real-space cells 3x 3x 3
 Maximum number of reciprocal cells 3x 3x 3

--------------------------------------- Ionic step        1  -------------------------------------------

--------------------------------------- Iteration      1(   1)  ---------------------------------------

 eigenvalue-minimisations  :  6960
 total energy-change (2. order) :-0.6555742E+01  (-0.1538820E-05)
 number of electron      40.0000008 magnetization
 augmentation part        1.5905493 magnetization

 Broyden mixing:
  rms(total) = 0.88306E-03    rms(broyden)= 0.88304E-03
  rms(prec ) = 0.91217E-03
  weight for this iteration     100.00

 Free energy of the ion-electron system (eV)
  alpha Z        PSCENC =       137.50984215
  Ewald energy   TEWEN  =     -2193.50294640
  -Hartree energ DENC   =      -819.44026847
  -exchange      EXHF   =         0.00000000
  -V(xc)+E(xc)   XCENC  =       137.43593365
  PAW double counting   =      3105.96098053    -3062.73532384
  entropy T*S    EENTRO =        -0.00851982
  eigenvalues    EBANDS =      -683.86383382
  atomic energy  EATOM  =      3372.08839373
  Solvation  Ediel_sol  =         0.00000000
  free energy    TOTEN  =        -6.55574228 eV

  energy without entropy =       -6.54722247  energy(sigma->0) =       -6.55148237

--------------------------------------- Iteration      1(   2)  ---------------------------------------

 eigenvalue-minimisations  :  5712
 total energy-change (2. order) :-0.2610477E-07  (-0.1040916E-06)
 number of electron      40.0000008 magnetization
 augmentation part        1.5905493 magnetization

 Free energy of the ion-electron system (eV)
  alpha Z        PSCENC =       137.50984215
  Ewald energy   TEWEN  =     -2193.50294640
  -Hartree energ DENC   =      -819.43769218
  -exchange      EXHF   =         0.00000000
  -V(xc)+E(xc)   XCENC  =       137.43575873
  PAW double counting   =      3105.95006486    -3062.72289821
  entropy T*S    EENTRO =        -0.00851988
  eigenvalues    EBANDS =      -683.86774509
  atomic energy  EATOM  =      3372.08839373
  Solvation  Ediel_sol  =         0.00000000
  free energy    TOTEN  =        -6.55574231 eV

  energy without entropy =       -6.54722242  energy(sigma->0) =       -6.55148237

 average (electrostatic) potential at core
  the test charge radii are     1.1929
  (the norm of the test charge is              1.0000)
       1 -40.9724       2 -40.9724       3 -40.9724       4 -40.9724

 E-fermi :   1.6309     XC(G=0):  -7.3760     alpha+bet : -6.1873

 val. band max:        1.6306132892   @ k =   0.4167   0.1667   0.0000
 cond. band min:       1.6332059059   @ k =   0.5000   0.1667   0.1667
 fundamental gap:      0.0025926167
 Fermi energy:         1.6309455622

 k-point     1 :       0.0000    0.0000    0.0000
  band No.  band energies     occupation
      1     -34.9897      2.00000
      2     -34.9705      2.00000
      3     -34.9705      2.00000
      4     -34.9705      2.00000
      5     -17.0645      2.00000
      6     -17.0645      2.00000
      7     -17.0645      2.00000
      8     -16.9482      2.00000
      9     -16.9482      2.00000
     10     -16.9482      2.00000
     11     -16.9482      2.00000
     12     -16.9482      2.00000
     13     -16.9482      2.00000
     14     -16.8747      2.00000
     15     -16.8747      2.00000
     16     -16.8747      2.00000
     17      -2.0464      2.00000
     18       0.9618      2.00000
     19       0.9618      2.00000
     20       0.9618      2.00000
     21       1.9511      0.00000
     22       1.9511      0.00000
     23       1.9511      0.00000
     24       2.6858      0.00000
     25       2.6858      0.00000
     26       2.6858      0.00000
     27       3.9660      0.00000
     28       3.9660      0.00000
     29       3.9660      0.00000
     30       5.4453      0.00000
     31       5.4453      0.00000
     32       6.5034      0.00000
     33       6.5034      0.00000
     34       6.5034      0.00000
     35       6.8029      0.00000
     36       6.8029      0.00000
     37       6.8029      0.00000
     38       6.8029      0.00000
     39       6.8029      0.00000
     40       6.8029      0.00000
     41       6.9656      0.00000
     42       6.9656      0.00000
     43       6.9656      0.00000
     44       6.9656      0.00000
     45       6.9656      0.00000
     46       6.9656      0.00000
     47       7.5181      0.00000
     48       7.5181      0.00000

[...]

 k-point    84 :       0.5000    0.5000    0.5000
  band No.  band energies     occupation
      1     -34.9752      2.00000
      2     -34.9752      2.00000
      3     -34.9752      2.00000
      4     -34.9752      2.00000
      5     -17.0764      2.00000
      6     -17.0764      2.00000
      7     -17.0764      2.00000
      8     -17.0764      2.00000
      9     -16.9024      2.00000
     10     -16.9024      2.00000
     11     -16.9024      2.00000
     12     -16.9024      2.00000
     13     -16.9024      2.00000
     14     -16.9024      2.00000
     15     -16.9024      2.00000
     16     -16.9024      2.00000
     17       0.4892      2.00000
     18       0.4892      2.00000
     19       0.4892      2.00000
     20       0.4892      2.00000
     21       1.6877      0.10838
     22       1.6877      0.10838
     23       1.6877      0.10838
     24       1.6877      0.10838
     25       3.8054      0.00000
     26       3.8054      0.00000
     27       3.8054      0.00000
     28       3.8054      0.00000
     29       3.8054      0.00000
     30       3.8054      0.00000
     31       3.8054      0.00000
     32       3.8054      0.00000
     33       6.4966      0.00000
     34       6.4966      0.00000
     35       6.4966      0.00000
     36       6.4966      0.00000
     37       6.4966      0.00000
     38       6.4966      0.00000
     39       6.4966      0.00000
     40       6.4966      0.00000
     41       7.2759      0.00000
     42       7.2759      0.00000
     43       7.2759      0.00000
     44       7.2759      0.00000
     45       8.4263      0.00000
     46       8.4263      0.00000
     47       8.4263      0.00000
     48       8.4263      0.00000

 soft charge-density along one line, spin component           1
         0         1         2         3         4         5         6         7         8         9
 total charge-density along one line

------------------------ aborting loop because EDIFF is reached ----------------------------------------

  FORCE on cell =-STRESS in cart. coord.  units (eV):
  Direction    XX          YY          ZZ          XY          YZ          ZX
  Alpha Z   137.50984   137.50984   137.50984
  Ewald    -731.16797  -731.16797  -731.16797     0.00000     0.00000     0.00000
  Hartree   273.14593   273.14593   273.14593    -0.00000    -0.00000    -0.00000
  E(xc)    -147.44676  -147.44676  -147.44676     0.00000     0.00000    -0.00000
  Local     117.38406   117.38406   117.38406     0.00000    -0.00000     0.00000
  n-local  -216.37181  -217.81003  -222.64277    -0.21683    -0.38658    -0.17559
  augment    10.38810    10.38810    10.38810    -0.00000     0.00000     0.00000
  Kinetic   559.08183   559.59551   558.40210    -1.23674    -0.38839    -1.15703
  Fock        0.00000     0.00000     0.00000     0.00000     0.00000     0.00000
  Total      -0.10185    -0.10185    -0.10185    -0.00000    -0.00000     0.00000
  in kB      -0.74809    -0.74809    -0.74809    -0.00000    -0.00000     0.00000

 VOLUME and BASIS-vectors are now :
  energy-cutoff  :      298.16
  volume of cell :      218.13
      direct lattice vectors                 reciprocal lattice vectors
     6.019690000  0.000000000  0.000000000     0.166121511 -0.000000000  0.000000000
     0.000000000  6.019690000  0.000000000     0.000000000  0.166121511  0.000000000
     0.000000000  0.000000000  6.019690000    -0.000000000 -0.000000000  0.166121511

  length of vectors
     6.019690000  6.019690000  6.019690000     0.166121511  0.166121511  0.166121511

 FORCES acting on ions
    electron-ion (+dipol)            ewald-force                    non-local-force                 convergence-correction
   -.202E-14 -.142E-14 -.275E-14   -.529E-14 -.237E-14 0.153E-14   0.851E-25 0.208E-24 -.519E-24   -.312E-13 -.340E-14 -.208E-13
   -.206E-14 0.112E-12 0.108E-12   -.505E-14 0.363E-14 0.161E-14   0.161E-24 0.111E-24 -.202E-24   -.275E-13 -.489E-14 -.352E-13
   0.110E-12 -.170E-14 0.317E-11   0.481E-14 -.397E-14 0.158E-14   0.180E-24 0.322E-24 0.305E-24   -.130E-13 -.429E-14 -.297E-13
   0.110E-12 0.146E-11 0.964E-12   0.505E-14 0.203E-14 -.505E-14   -.235E-24 -.134E-25 0.168E-24   -.935E-14 -.745E-14 -.223E-13
   0.216E-12 0.157E-11 0.424E-11   -.478E-15 -.689E-15 -.337E-15   0.191E-24 0.627E-24 -.248E-24   -.811E-13 -.200E-13 -.108E-12

 POSITION                                       TOTAL-FORCE (eV/Angst)
      0.00000      0.00000      0.00000        -0.000000      0.000000      0.000000
      0.00000      3.00984      3.00984         0.000000     -0.000000     -0.000000
      3.00984      0.00000      3.00984        -0.000000     -0.000000      0.000000
      3.00985      3.00984      0.00000         0.000000      0.000000     -0.000000
    total drift:                                0.000000      0.000000      0.000000

  FREE ENERGIE OF THE ION-ELECTRON SYSTEM (eV)
  free  energy   TOTEN  =        -6.55574231 eV

  energy  without entropy=       -6.54722242  energy(sigma->0) =       -6.55148237

 writing wavefunctions