 vasp.6.4.3 19Mar24 (build Jun 26 2024 13:02:28) complex

 executed on             LinuxIFC date 2025.08.08  18:20:09

 INCAR:
   ENCUT = 384.07980000000003
   IBRION = -1
   ISMEAR = 0
   ISYM = 2
   LCHARG = True
   LWAVE = True
   SIGMA = 0.05
   SYSTEM = Cu

 POTCAR:  PAW_PBE Cu 22Jun2005
|           W    W    AA    RRRRR   N    N  II  N    N   GGGG   !!!           |
|           W    W   A  A   R    R  NN   N  II  NN   N  G    G  !!!           |
|           W    W  A    A  R    R  N N  N  II  N N  N  G       !!!           |
|           W WW W  AAAAAA  RRRRR   N  N N  II  N  N N  G  GGG   !            |
|           WW  WW  A    A  R   R   N   NN  II  N   NN  G    G                |
|           W    W  A    A  R    R  N    N  II  N    N   GGGG   !!!           |
|     For optimal performance we recommend to set                             |
|       NCORE = 2 up to number-of-cores-per-socket                            |
|     This setting can greatly improve the performance of VASP for DFT.       |
|     The default, NCORE=1 might be grossly inefficient on modern             |
|     multi-core architectures or massively parallel machines. Do your        |
|     Unfortunately you need to use the default for GW and RPA                |
|     calculations (for HF NCORE is supported but not extensively tested      |
|     yet).                                                                   |

 POTCAR:  PAW_PBE Cu 22Jun2005
   VRHFIN =Cu: d10 p1

   TITEL  = PAW_PBE Cu 22Jun2005
   POMASS =   63.546; ZVAL   =   11.000    mass and valenz
   ENMAX  =  295.446; ENMIN  =  221.585 eV

PAW_PBE Cu 22Jun2005                    :

 POSCAR: Cu4
  positions in direct lattice

 exchange-correlation table for PE
   RHO(1)=    0.500       N(1)  =     2000
   RHO(2)=  100.500       N(2)  =     4000

 ion  position               nearest neighbor table
   1  0.000  0.000  0.000-   2 2.57   3 2.57   2 2.57   3 2.57   2 2.57   4 2.57   2 2.57   3 2.57
                             4 2.57   3 2.57   4 2.57   4 2.57
   2  0.000  0.500  0.500-   1 2.57   4 2.57   1 2.57   4 2.57   1 2.57   3 2.57   1 2.57   3 2.57
                             4 2.57   4 2.57   3 2.57   3 2.57
   3  0.500  0.000  0.500-   1 2.57   4 2.57   1 2.57   4 2.57   2 2.57   4 2.57   4 2.57   1 2.57
                             2 2.57   1 2.57   2 2.57   2 2.57
   4  0.500  0.500  0.000-   2 2.57   3 2.57   2 2.57   3 2.57   1 2.57   3 2.57   3 2.57   1 2.57
                             2 2.57   2 2.57   1 2.57   1 2.57

  LATTYP: Found a simple cubic cell.
 ALAT       =     3.6368900000

  Lattice vectors:

 A1 = (   3.6368900000,   0.0000000000,   0.0000000000)
 A2 = (   0.0000000000,   3.6368900000,   0.0000000000)
 A3 = (   0.0000000000,   0.0000000000,   3.6368900000)

Analysis of symmetry for initial positions (statically):
 Subroutine PRICEL returns following result:

  LATTYP: Found a face centered cubic cell.
 ALAT       =     3.6368900000

[...]

   4 primitive cells build up your supercell.

 Routine SETGRP: Setting up the symmetry group for a
 simple cubic supercell.

 Subroutine GETGRP returns: Found 48 space group operations
 (whereof 48 operations were pure point group operations)
 out of a pool of 48 trial point group operations.

The static configuration has the point symmetry O_h .

Analysis of symmetry for dynamics (positions and initial velocities):
 Subroutine PRICEL returns following result:

  LATTYP: Found a face centered cubic cell.
 ALAT       =     3.6368900000

  Lattice vectors:

 A1 = (   1.8184450000,  -1.8184450000,   0.0000000000)
 A2 = (   1.8184450000,   0.0000000000,   1.8184450000)
 A3 = (  -0.0000000000,  -1.8184450000,   1.8184450000)

   4 primitive cells build up your supercell.

 Routine SETGRP: Setting up the symmetry group for a
 simple cubic supercell.

 Subroutine GETGRP returns: Found 48 space group operations
 (whereof 48 operations were pure point group operations)
 out of a pool of 48 trial point group operations.

The dynamic configuration has the point symmetry O_h .

 Subroutine INISYM returns: Found 48 space group operations
 (whereof 48 operations are pure point group operations),
 and found     4 'primitive' translations

                                     Primitive cell

  volume of cell :      12.0263

  direct lattice vectors                    reciprocal lattice vectors
     1.818445000 -1.818445000  0.000000000     0.274960200 -0.274960200 -0.274960200
     1.818445000  0.000000000  1.818445000     0.274960200  0.274960200  0.274960200
    -0.000000000 -1.818445000  1.818445000    -0.274960200 -0.274960200  0.274960200

  length of vectors
     2.571669581  2.571669581  2.571669581     0.476245036  0.476245036  0.476245036

  position of ions in fractional coordinates (direct lattice)
     0.000000000  0.000000000  0.000000000

  ion indices of the primitive-cell ions
   primitive index   ion index
                 1           1

 KPOINTS: Automatic kpoint scheme

Automatic generation of k-mesh.
 Grid dimensions read from file:
 generate k-points for:    8    8    8

 Generating k-lattice:

  Cartesian coordinates                     Fractional coordinates (reciprocal lattice)
     0.034370025 -0.000000000  0.000000000     0.125000000  0.000000000  0.000000000
     0.000000000  0.034370025  0.000000000     0.000000000  0.125000000  0.000000000
    -0.000000000 -0.000000000  0.034370025     0.000000000 -0.000000000  0.125000000

  Length of vectors
     0.034370025  0.034370025  0.034370025

  Shift w.r.t. Gamma in fractional coordinates (k-lattice)
     0.000000000  0.000000000  0.000000000

 Subroutine IBZKPT returns following result:

 Found     35 irreducible k-points:

 Following reciprocal coordinates:
            Coordinates               Weight
  0.000000  0.000000  0.000000      1.000000
  0.125000  0.000000  0.000000      6.000000
  0.250000  0.000000  0.000000      6.000000
  0.375000  0.000000  0.000000      6.000000
  0.500000  0.000000  0.000000      3.000000
  0.125000  0.125000  0.000000     12.000000
  0.250000  0.125000  0.000000     24.000000
  0.375000  0.125000  0.000000     24.000000
  0.500000  0.125000  0.000000     12.000000
  0.250000  0.250000  0.000000     12.000000
  0.375000  0.250000  0.000000     24.000000
  0.500000  0.250000  0.000000     12.000000
  0.375000  0.375000  0.000000     12.000000
  0.500000  0.375000  0.000000     12.000000
  0.500000  0.500000  0.000000      3.000000
  0.125000  0.125000  0.125000      8.000000
  0.250000  0.125000  0.125000     24.000000
  0.375000  0.125000  0.125000     24.000000
  0.500000  0.125000  0.125000     12.000000
  0.250000  0.250000  0.125000     24.000000
  0.375000  0.250000  0.125000     48.000000
  0.500000  0.250000  0.125000     24.000000
  0.375000  0.375000  0.125000     24.000000
  0.500000  0.375000  0.125000     24.000000
  0.500000  0.500000  0.125000      6.000000
  0.250000  0.250000  0.250000      8.000000
  0.375000  0.250000  0.250000     24.000000
  0.500000  0.250000  0.250000     12.000000
  0.375000  0.375000  0.250000     24.000000
  0.500000  0.375000  0.250000     24.000000
  0.500000  0.500000  0.250000      6.000000
  0.375000  0.375000  0.375000      8.000000
  0.500000  0.375000  0.375000     12.000000
  0.500000  0.500000  0.375000      6.000000
  0.500000  0.500000  0.500000      1.000000

 Following cartesian coordinates:
            Coordinates               Weight
  0.000000  0.000000  0.000000      1.000000
  0.034370 -0.000000  0.000000      6.000000
  0.068740 -0.000000  0.000000      6.000000
  0.103110 -0.000000  0.000000      6.000000
  0.137480 -0.000000  0.000000      3.000000
  0.034370  0.034370  0.000000     12.000000
  0.068740  0.034370  0.000000     24.000000
  0.103110  0.034370  0.000000     24.000000
  0.137480  0.034370  0.000000     12.000000
  0.068740  0.068740  0.000000     12.000000
  0.103110  0.068740  0.000000     24.000000
  0.137480  0.068740  0.000000     12.000000
  0.103110  0.103110  0.000000     12.000000
  0.137480  0.103110  0.000000     12.000000
  0.137480  0.137480  0.000000      3.000000
  0.034370  0.034370  0.034370      8.000000
  0.068740  0.034370  0.034370     24.000000
  0.103110  0.034370  0.034370     24.000000
  0.137480  0.034370  0.034370     12.000000
  0.068740  0.068740  0.034370     24.000000
  0.103110  0.068740  0.034370     48.000000
  0.137480  0.068740  0.034370     24.000000
  0.103110  0.103110  0.034370     24.000000
  0.137480  0.103110  0.034370     24.000000
  0.137480  0.137480  0.034370      6.000000
  0.068740  0.068740  0.068740      8.000000
  0.103110  0.068740  0.068740     24.000000
  0.137480  0.068740  0.068740     12.000000
  0.103110  0.103110  0.068740     24.000000
  0.137480  0.103110  0.068740     24.000000
  0.137480  0.137480  0.068740      6.000000
  0.103110  0.103110  0.103110      8.000000
  0.137480  0.103110  0.103110     12.000000
  0.137480  0.137480  0.103110      6.000000
  0.137480  0.137480  0.137480      1.000000

 Subroutine IBZKPT_HF returns following result:

 Found    512 k-points in 1st BZ
 the following    512 k-points will be used (e.g. in the exchange kernel)
 Following reciprocal coordinates:   # in IRBZ
  0.000000  0.000000  0.000000    0.00195312   1 t-inv F
  0.125000  0.000000  0.000000    0.00195312   2 t-inv F
  0.250000  0.000000  0.000000    0.00195312   3 t-inv F
  0.375000  0.000000  0.000000    0.00195312   4 t-inv F
  0.500000  0.000000  0.000000    0.00195312   5 t-inv F
  0.125000  0.125000  0.000000    0.00195312   6 t-inv F
  0.250000  0.125000  0.000000    0.00195312   7 t-inv F
  0.375000  0.125000  0.000000    0.00195312   8 t-inv F
  0.500000  0.125000  0.000000    0.00195312   9 t-inv F
  0.250000  0.250000  0.000000    0.00195312  10 t-inv F
  0.375000  0.250000  0.000000    0.00195312  11 t-inv F
  0.500000  0.250000  0.000000    0.00195312  12 t-inv F
  0.375000  0.375000  0.000000    0.00195312  13 t-inv F
  0.500000  0.375000  0.000000    0.00195312  14 t-inv F
  0.500000  0.500000  0.000000    0.00195312  15 t-inv F
  0.125000  0.125000  0.125000    0.00195312  16 t-inv F
  0.250000  0.125000  0.125000    0.00195312  17 t-inv F
  0.375000  0.125000  0.125000    0.00195312  18 t-inv F
  0.500000  0.125000  0.125000    0.00195312  19 t-inv F
  0.250000  0.250000  0.125000    0.00195312  20 t-inv F
  0.375000  0.250000  0.125000    0.00195312  21 t-inv F
  0.500000  0.250000  0.125000    0.00195312  22 t-inv F
  0.375000  0.375000  0.125000    0.00195312  23 t-inv F
  0.500000  0.375000  0.125000    0.00195312  24 t-inv F
  0.500000  0.500000  0.125000    0.00195312  25 t-inv F
  0.250000  0.250000  0.250000    0.00195312  26 t-inv F
  0.375000  0.250000  0.250000    0.00195312  27 t-inv F
  0.500000  0.250000  0.250000    0.00195312  28 t-inv F
  0.375000  0.375000  0.250000    0.00195312  29 t-inv F
  0.500000  0.375000  0.250000    0.00195312  30 t-inv F
  0.500000  0.500000  0.250000    0.00195312  31 t-inv F
  0.375000  0.375000  0.375000    0.00195312  32 t-inv F
  0.500000  0.375000  0.375000    0.00195312  33 t-inv F
  0.500000  0.500000  0.375000    0.00195312  34 t-inv F
  0.500000  0.500000  0.500000    0.00195312  35 t-inv F
[...]
     3.636890000  0.000000000  0.000000000     0.274960200 -0.000000000  0.000000000
     0.000000000  3.636890000  0.000000000     0.000000000  0.274960200  0.000000000
     0.000000000  0.000000000  3.636890000    -0.000000000 -0.000000000  0.274960200

  length of vectors

 k-points in units of 2pi/SCALE and weight: Automatic kpoint scheme
   0.00000000  0.00000000  0.00000000       0.002
   0.03437002 -0.00000000  0.00000000       0.012
   0.06874005 -0.00000000  0.00000000       0.012
   0.10311007 -0.00000000  0.00000000       0.012
   0.13748010 -0.00000000  0.00000000       0.006
   0.03437002  0.03437002  0.00000000       0.023
   0.06874005  0.03437002  0.00000000       0.047
   0.10311007  0.03437002  0.00000000       0.047
   0.13748010  0.03437002  0.00000000       0.023
   0.06874005  0.06874005  0.00000000       0.023
   0.10311007  0.06874005  0.00000000       0.047
   0.13748010  0.06874005  0.00000000       0.023
   0.10311007  0.10311007  0.00000000       0.023
   0.13748010  0.10311007  0.00000000       0.023
   0.13748010  0.13748010  0.00000000       0.006
   0.03437002  0.03437002  0.03437002       0.016
   0.06874005  0.03437002  0.03437002       0.047
   0.10311007  0.03437002  0.03437002       0.047
   0.13748010  0.03437002  0.03437002       0.023
   0.06874005  0.06874005  0.03437002       0.047
   0.10311007  0.06874005  0.03437002       0.094
   0.13748010  0.06874005  0.03437002       0.047
   0.10311007  0.10311007  0.03437002       0.047
   0.13748010  0.10311007  0.03437002       0.047
   0.13748010  0.13748010  0.03437002       0.012
   0.06874005  0.06874005  0.06874005       0.016
   0.10311007  0.06874005  0.06874005       0.047
   0.13748010  0.06874005  0.06874005       0.023
   0.10311007  0.10311007  0.06874005       0.047
   0.13748010  0.10311007  0.06874005       0.047
   0.13748010  0.13748010  0.06874005       0.012
   0.10311007  0.10311007  0.10311007       0.016
   0.13748010  0.10311007  0.10311007       0.023
   0.13748010  0.13748010  0.10311007       0.012
   0.13748010  0.13748010  0.13748010       0.002

 k-points in reciprocal lattice and weights: Automatic kpoint scheme
   0.00000000  0.00000000  0.00000000       0.002
   0.12500000  0.00000000  0.00000000       0.012
   0.25000000  0.00000000  0.00000000       0.012
   0.37500000  0.00000000  0.00000000       0.012
   0.50000000  0.00000000  0.00000000       0.006
   0.12500000  0.12500000  0.00000000       0.023
   0.25000000  0.12500000  0.00000000       0.047
   0.37500000  0.12500000  0.00000000       0.047
   0.50000000  0.12500000  0.00000000       0.023
   0.25000000  0.25000000  0.00000000       0.023
   0.37500000  0.25000000  0.00000000       0.047
   0.50000000  0.25000000  0.00000000       0.023
   0.37500000  0.37500000  0.00000000       0.023
   0.50000000  0.37500000  0.00000000       0.023
   0.50000000  0.50000000  0.00000000       0.006
   0.12500000  0.12500000  0.12500000       0.016
   0.25000000  0.12500000  0.12500000       0.047
   0.37500000  0.12500000  0.12500000       0.047
   0.50000000  0.12500000  0.12500000       0.023
   0.25000000  0.25000000  0.12500000       0.047
   0.37500000  0.25000000  0.12500000       0.094
   0.50000000  0.25000000  0.12500000       0.047
   0.37500000  0.37500000  0.12500000       0.047
   0.50000000  0.37500000  0.12500000       0.047
   0.50000000  0.50000000  0.12500000       0.012
   0.25000000  0.25000000  0.25000000       0.016
   0.37500000  0.25000000  0.25000000       0.047
   0.50000000  0.25000000  0.25000000       0.023
   0.37500000  0.37500000  0.25000000       0.047
   0.50000000  0.37500000  0.25000000       0.047
   0.50000000  0.50000000  0.25000000       0.012
   0.37500000  0.37500000  0.37500000       0.016
   0.50000000  0.37500000  0.37500000       0.023
   0.50000000  0.50000000  0.37500000       0.012
   0.50000000  0.50000000  0.50000000       0.002

 position of ions in fractional coordinates (direct lattice)
   0.00000000  0.00000000  0.00000000
   0.00000000  0.50000000  0.50000000
   0.50000000  0.00000000  0.50000000
   0.50000000  0.50000000  0.00000000

 position of ions in cartesian coordinates  (Angst):
   0.00000000  0.00000000  0.00000000
   0.00000000  1.81844500  1.81844500
   1.81844500  0.00000000  1.81844500
   1.81844500  1.81844500  0.00000000

 k-point     1 :   0.0000 0.0000 0.0000  plane waves:     799
 k-point     2 :   0.1250 0.0000 0.0000  plane waves:     815
 k-point     3 :   0.2500 0.0000 0.0000  plane waves:     812
 k-point     4 :   0.3750 0.0000 0.0000  plane waves:     816
 k-point     5 :   0.5000 0.0000 0.0000  plane waves:     820
 k-point     6 :   0.1250 0.1250 0.0000  plane waves:     804
 k-point     7 :   0.2500 0.1250 0.0000  plane waves:     820
 k-point     8 :   0.3750 0.1250 0.0000  plane waves:     830
 k-point     9 :   0.5000 0.1250 0.0000  plane waves:     830
 k-point    10 :   0.2500 0.2500 0.0000  plane waves:     822
 k-point    11 :   0.3750 0.2500 0.0000  plane waves:     827
 k-point    12 :   0.5000 0.2500 0.0000  plane waves:     814
 k-point    13 :   0.3750 0.3750 0.0000  plane waves:     822
 k-point    14 :   0.5000 0.3750 0.0000  plane waves:     818
 k-point    15 :   0.5000 0.5000 0.0000  plane waves:     840
 k-point    16 :   0.1250 0.1250 0.1250  plane waves:     820
 k-point    17 :   0.2500 0.1250 0.1250  plane waves:     818
 k-point    18 :   0.3750 0.1250 0.1250  plane waves:     823
 k-point    19 :   0.5000 0.1250 0.1250  plane waves:     816
 k-point    20 :   0.2500 0.2500 0.1250  plane waves:     818
 k-point    21 :   0.3750 0.2500 0.1250  plane waves:     822
 k-point    22 :   0.5000 0.2500 0.1250  plane waves:     816
 k-point    23 :   0.3750 0.3750 0.1250  plane waves:     820
 k-point    24 :   0.5000 0.3750 0.1250  plane waves:     824
 k-point    25 :   0.5000 0.5000 0.1250  plane waves:     836
 k-point    26 :   0.2500 0.2500 0.2500  plane waves:     838
 k-point    27 :   0.3750 0.2500 0.2500  plane waves:     825
 k-point    28 :   0.5000 0.2500 0.2500  plane waves:     812
 k-point    29 :   0.3750 0.3750 0.2500  plane waves:     821
 k-point    30 :   0.5000 0.3750 0.2500  plane waves:     828
 k-point    31 :   0.5000 0.5000 0.2500  plane waves:     824
 k-point    32 :   0.3750 0.3750 0.3750  plane waves:     822
 k-point    33 :   0.5000 0.3750 0.3750  plane waves:     818
 k-point    34 :   0.5000 0.5000 0.3750  plane waves:     832
 k-point    35 :   0.5000 0.5000 0.5000  plane waves:     840

 maximum and minimum number of plane-waves per node :       840      799

 maximum number of plane-waves:       840
 maximum index in each direction:
   IXMAX=    5   IYMAX=    5   IZMAX=    5
   IXMIN=   -6   IYMIN=   -6   IZMIN=   -6

 serial   3D FFT for wavefunctions
 parallel 3D FFT for charge:
    minimum data exchange during FFTs selected (reduces bandwidth)

 Broyden mixing: mesh for mixing (old mesh)
   NGX = 11   NGY = 11   NGZ = 11
  (NGX  = 36   NGY  = 36   NGZ  = 36)
  gives a total of   1331 points

 charge density for first step will be calculated from the start-wavefunctions

 Maximum index for augmentation-charges          277 (set IRDMAX)

 initial charge from wavefunction
 First call to EWALD:  gamma=   0.487
 Maximum number of real-space cells 3x 3x 3
 Maximum number of reciprocal cells 3x 3x 3

--------------------------------------- Ionic step        1  -------------------------------------------

--------------------------------------- Iteration      1(   1)  ---------------------------------------

 eigenvalue-minimisations  :  1872
 total energy-change (2. order) :-0.1492008E+02  (-0.1031834E-04)
 number of electron      44.0001105 magnetization
 augmentation part       28.0506424 magnetization

 Broyden mixing:
  rms(total) = 0.20297E-02    rms(broyden)= 0.20294E-02
  rms(prec ) = 0.46195E-02
  weight for this iteration     100.00

 Free energy of the ion-electron system (eV)
  alpha Z        PSCENC =       243.24376042
  Ewald energy   TEWEN  =     -4393.06423324
  -Hartree energ DENC   =     -1369.83480182
  -exchange      EXHF   =         0.00000000
  -V(xc)+E(xc)   XCENC  =       178.58716844
  PAW double counting   =      5243.40230511    -5674.50611115
  entropy T*S    EENTRO =        -0.00266983
  eigenvalues    EBANDS =       193.44328919
  atomic energy  EATOM  =      5563.81121641
  Solvation  Ediel_sol  =         0.00000000
  free energy    TOTEN  =       -14.92007648 eV

  energy without entropy =      -14.91740664  energy(sigma->0) =      -14.91874156

--------------------------------------- Iteration      1(   2)  ---------------------------------------

 eigenvalue-minimisations  :  1872
 total energy-change (2. order) : 0.4443872E-05  (-0.1534834E-04)
 number of electron      44.0001105 magnetization
 augmentation part       28.0506424 magnetization

 Free energy of the ion-electron system (eV)
  alpha Z        PSCENC =       243.24376042
  Ewald energy   TEWEN  =     -4393.06423324
  -Hartree energ DENC   =     -1369.69277122
  -exchange      EXHF   =         0.00000000
  -V(xc)+E(xc)   XCENC  =       178.57997505
  PAW double counting   =      5243.28320033    -5674.33571679
  entropy T*S    EENTRO =        -0.00266866
  eigenvalues    EBANDS =       193.25716567
  atomic energy  EATOM  =      5563.81121641
  Solvation  Ediel_sol  =         0.00000000
  free energy    TOTEN  =       -14.92007203 eV

  energy without entropy =      -14.91740337  energy(sigma->0) =      -14.91873770

 average (electrostatic) potential at core
  the test charge radii are     0.9430
  (the norm of the test charge is              1.0000)
       1 -63.8658       2 -63.8658       3 -63.8658       4 -63.8658

 E-fermi :   7.3205     XC(G=0): -12.6202     alpha+bet :-13.1831

 val. band max:        7.2133015075   @ k =   0.3750   0.3750   0.1250
 cond. band min:       7.3222223322   @ k =   0.3750   0.3750   0.2500
 fundamental gap:      0.1089208247
 Fermi energy:         7.3204847162

 k-point     1 :       0.0000    0.0000    0.0000
  band No.  band energies     occupation
      1      -1.8523      2.00000
      2       2.6004      2.00000
      3       2.6004      2.00000
      4       2.6004      2.00000
      5       3.0467      2.00000
      6       3.0467      2.00000
      7       3.0467      2.00000
      8       4.4032      2.00000
      9       4.4032      2.00000
     10       4.4032      2.00000
     11       5.2078      2.00000
     12       5.2078      2.00000
     13       5.7423      2.00000
     14       5.7423      2.00000
     15       5.7423      2.00000
     16       5.8936      2.00000
     17       5.8936      2.00000
     18       5.8936      2.00000
     19       5.8936      2.00000
     20       5.8936      2.00000
     21       5.8936      2.00000
     22       8.8740      0.00000
     23       8.8740      0.00000
     24       8.8740      0.00000
     25      14.3554      0.00000
     26      14.3554      0.00000
     27      14.3554      0.00000
     28      20.3031      0.00000
     29      20.3031      0.00000
     30      20.3031      0.00000
     31      20.3031      0.00000
     32      20.3031      0.00000
     33      20.3031      0.00000
     34      24.7572      0.00000
     35      24.7572      0.00000
     36      24.7572      0.00000
     37      27.3248      0.00000
     38      27.3248      0.00000
     39      27.3248      0.00000
     40      29.8140      0.00000
     41      32.3140      0.00000
     42      32.3140      0.00000
     43      32.3140      0.00000
     44      34.7951      0.00000
     45      34.7951      0.00000
     46      34.7951      0.00000
     47      38.5577      0.00000
     48      43.1899      0.00000

[...]

 k-point    35 :       0.5000    0.5000    0.5000
  band No.  band energies     occupation
      1       2.3945      2.00000
      2       2.3945      2.00000
      3       2.3945      2.00000
      4       2.3945      2.00000
      5       4.3730      2.00000
      6       4.3730      2.00000
      7       4.3730      2.00000
      8       4.3730      2.00000
      9       4.3730      2.00000
     10       4.3730      2.00000
     11       4.3730      2.00000
     12       4.3730      2.00000
     13       5.7566      2.00000
     14       5.7566      2.00000
     15       5.7566      2.00000
     16       5.7566      2.00000
     17       5.7566      2.00000
     18       5.7566      2.00000
     19       5.7566      2.00000
     20       5.7566      2.00000
     21       6.4131      2.00000
     22       6.4131      2.00000
     23       6.4131      2.00000
     24       6.4131      2.00000
     25      11.0325      0.00000
     26      11.0325      0.00000
     27      11.0325      0.00000
     28      11.0325      0.00000
     29      28.3147      0.00000
     30      28.3147      0.00000
     31      28.3147      0.00000
     32      28.3147      0.00000
     33      29.1494      0.00000
     34      29.1494      0.00000
     35      29.1494      0.00000
     36      29.1494      0.00000
     37      29.1494      0.00000
     38      29.1494      0.00000
     39      29.1494      0.00000
     40      29.1494      0.00000
     41      32.1835      0.00000
     42      32.1835      0.00000
     43      32.1835      0.00000
     44      32.1835      0.00000
     45      32.1835      0.00000
     46      32.1835      0.00000
     47      32.1835      0.00000
     48      32.1835      0.00000

 soft charge-density along one line, spin component           1
         0         1         2         3         4         5         6         7         8         9
 total charge-density along one line

------------------------ aborting loop because EDIFF is reached ----------------------------------------

  FORCE on cell =-STRESS in cart. coord.  units (eV):
  Direction    XX          YY          ZZ          XY          YZ          ZX
  Alpha Z   243.24376   243.24376   243.24376
  Ewald   -1464.35539 -1464.35539 -1464.35539    -0.00000     0.00000     0.00000
  Hartree   456.64098   456.64098   456.64098    -0.00000    -0.00000    -0.00000
  E(xc)    -257.25547  -257.25547  -257.25547     0.00000     0.00000     0.00000
  Local     368.93415   368.93415   368.93415     0.00000    -0.00000    -0.00000
  n-local   -79.09352   -87.48130   -89.26408     0.80822     2.63686     0.97998
  augment   379.24141   379.24141   379.24141     0.00000     0.00000    -0.00000
  Kinetic   366.38815   358.25386   352.36805    -2.55252    -0.06132    -1.03447
  Fock        0.00000     0.00000     0.00000     0.00000     0.00000     0.00000
  Total       0.17317     0.17317     0.17317     0.00000     0.00000     0.00000
  in kB       5.76741     5.76741     5.76741     0.00000     0.00000     0.00000

 VOLUME and BASIS-vectors are now :
  energy-cutoff  :      384.08
  volume of cell :       48.11
      direct lattice vectors                 reciprocal lattice vectors
     3.636890000  0.000000000  0.000000000     0.274960200 -0.000000000  0.000000000
     0.000000000  3.636890000  0.000000000     0.000000000  0.274960200  0.000000000
     0.000000000  0.000000000  3.636890000    -0.000000000 -0.000000000  0.274960200

  length of vectors
     3.636890000  3.636890000  3.636890000     0.274960200  0.274960200  0.274960200

 FORCES acting on ions
    electron-ion (+dipol)            ewald-force                    non-local-force                 convergence-correction
   -.204E-13 -.532E-13 -.699E-13   -.138E-13 -.565E-14 0.369E-14   -.471E-23 -.515E-24 0.194E-23   -.191E-13 0.120E-13 0.292E-13
   -.217E-13 0.694E-12 0.684E-12   -.130E-13 0.394E-14 0.628E-14   -.212E-24 0.800E-24 -.407E-23   -.173E-13 0.117E-13 0.127E-13
   0.703E-12 -.464E-13 -.985E-12   0.128E-13 -.462E-14 0.646E-14   -.119E-23 -.401E-23 0.104E-23   -.135E-13 -.104E-14 0.708E-15
   0.704E-12 0.704E-12 0.841E-12   0.136E-13 0.498E-14 -.132E-13   -.124E-23 0.227E-23 0.484E-23   -.323E-13 -.576E-14 0.328E-13
   0.136E-11 0.130E-11 0.470E-12   -.323E-15 -.136E-14 0.323E-14   -.735E-23 -.146E-23 0.375E-23   -.823E-13 0.168E-13 0.755E-13

 POSITION                                       TOTAL-FORCE (eV/Angst)
      0.00000      0.00000      0.00000         0.000000     -0.000000      0.000000
      0.00000      1.81845      1.81845        -0.000000     -0.000000     -0.000000
      1.81845      0.00000      1.81845        -0.000000      0.000000     -0.000000
      1.81845      1.81845      0.00000         0.000000      0.000000      0.000000
    total drift:                                0.000000      0.000000      0.000000

  FREE ENERGIE OF THE ION-ELECTRON SYSTEM (eV)
  free  energy   TOTEN  =       -14.92007203 eV

  energy  without entropy=      -14.91740337  energy(sigma->0) =      -14.91873770

 writing wavefunctions