 vasp.6.4.3 19Mar24 (build Jun 26 2024 13:02:28) complex

 executed on             LinuxIFC date 2025.08.08  20:04:59

 INCAR:
   ENCUT = 308.1689
   IBRION = -1
   ISMEAR = 0
   ISYM = 2
   LCHARG = True
   LSORBIT = True
   LWAVE = True
   SAXIS = 0 0 1
   SIGMA = 0.05
   SYSTEM = Tl

 POTCAR:  PAW_PBE Tl_d 06Sep2000
|           W    W    AA    RRRRR   N    N  II  N    N   GGGG   !!!           |
|           W    W   A  A   R    R  NN   N  II  NN   N  G    G  !!!           |
|           W    W  A    A  R    R  N N  N  II  N N  N  G       !!!           |
|           W WW W  AAAAAA  RRRRR   N  N N  II  N  N N  G  GGG   !            |
|           WW  WW  A    A  R   R   N   NN  II  N   NN  G    G                |
|           W    W  A    A  R    R  N    N  II  N    N   GGGG   !!!           |
|     You use a magnetic or noncollinear calculation, but did not specify     |
|     the initial magnetic moment with the MAGMOM tag. Note that a            |
|     default of 1 will be used for all atoms. This ferromagnetic setup       |
|     may break the symmetry of the crystal, in particular it may rule        |
|     out finding an antiferromagnetic solution. Thence, we recommend         |
|     setting the initial magnetic moment manually or verifying carefully     |
|     that this magnetic setup is desired.                                    |

 POTCAR:  PAW_PBE Tl_d 06Sep2000
   VRHFIN =Tl:

   TITEL  = PAW_PBE Tl_d 06Sep2000
   POMASS =  204.380; ZVAL   =   13.000    mass and valenz
   ENMAX  =  237.053; ENMIN  =  177.789 eV

PAW_PBE Tl_d 06Sep2000                  :

 POSCAR: Tl2
  positions in direct lattice

 exchange-correlation table for PE
   RHO(1)=    0.500       N(1)  =     2000
   RHO(2)=  100.500       N(2)  =     4000

 ion  position               nearest neighbor table
   1  0.000  0.000  0.000-   2 3.50   2 3.50   2 3.50   2 3.50   2 3.50   2 3.50
   2  0.333  0.333  0.500-   1 3.50   1 3.50   1 3.50   1 3.50   1 3.50   1 3.50

  LATTYP: Found a hexagonal cell.
 ALAT       =     3.5925500000
 C/A-ratio  =     1.5704583096

  Lattice vectors:

 A1 = (  -1.7962750000,  -3.1112395644,   0.0000000000)
 A2 = (   3.5925500000,   0.0000000000,   0.0000000000)
 A3 = (   0.0000000000,   0.0000000000,   5.6419500000)

Analysis of symmetry for initial positions (statically):
 Subroutine PRICEL returns:
 Original cell was already a primitive cell.

 Routine SETGRP: Setting up the symmetry group for a
 hexagonal supercell.

 Subroutine GETGRP returns: Found 24 space group operations
 (whereof 12 operations were pure point group operations)
 out of a pool of 24 trial point group operations.

The static configuration has the point symmetry D_3h.
 The point group associated with its full space group is D_6h.

Analysis of symmetry for dynamics (positions and initial velocities):
 Subroutine PRICEL returns:
 Original cell was already a primitive cell.

[...]

The dynamic configuration has the point symmetry D_3h.
 The point group associated with its full space group is D_6h.

Analysis of structural, dynamic, and magnetic symmetry:
 Subroutine PRICEL returns:
 Original cell was already a primitive cell.

 Routine SETGRP: Setting up the symmetry group for a
 hexagonal supercell.

 Subroutine GETGRP returns: Found  2 space group operations
 (whereof  1 operations were pure point group operations)
 out of a pool of 24 trial point group operations.

The overall configuration has the point symmetry C_1 .
 The point group associated with its full space group is S_2 .

 Subroutine INISYM returns: Found  2 space group operations
 (whereof  1 operations are pure point group operations),
 and found     1 'primitive' translations

                                     Primitive cell

  volume of cell :      63.0617

  direct lattice vectors                    reciprocal lattice vectors
     3.592550000  0.000000000  0.000000000     0.278353816 -0.160707650  0.000000000
     1.796275000  3.111239564  0.000000000     0.000000000  0.321415301  0.000000000
     0.000000000  0.000000000  5.641950000    -0.000000000 -0.000000000  0.177243683

  length of vectors
     3.592550000  3.592550000  5.641950000     0.321415301  0.321415301  0.177243683

  position of ions in fractional coordinates (direct lattice)
     0.000000000  0.000000000  0.000000000
     0.333333333  0.333333333  0.500000000

  ion indices of the primitive-cell ions
   primitive index   ion index
                 1           1
                 2           2

 KPOINTS: Automatic kpoint scheme

Automatic generation of k-mesh.
 Grid dimensions read from file:
 generate k-points for:   12   12   12

 Generating k-lattice:

  Cartesian coordinates                     Fractional coordinates (reciprocal lattice)
     0.023196151 -0.013392304  0.000000000     0.083333333  0.000000000  0.000000000
     0.000000000  0.026784608  0.000000000     0.000000000  0.083333333  0.000000000
    -0.000000000 -0.000000000  0.014770307     0.000000000  0.000000000  0.083333333

  Length of vectors
     0.026784608  0.026784608  0.014770307

  Shift w.r.t. Gamma in fractional coordinates (k-lattice)
     0.000000000  0.000000000  0.000000000

 Subroutine IBZKPT returns following result:

 Found    868 irreducible k-points:

 Following reciprocal coordinates:
            Coordinates               Weight
  0.000000  0.000000  0.000000      1.000000
  0.083333  0.000000  0.000000      2.000000
  0.083333  0.083333  0.000000      2.000000
  0.000000  0.083333  0.000000      2.000000
  0.166667  0.000000  0.000000      2.000000
  0.166667  0.166667  0.000000      2.000000
  0.000000  0.166667  0.000000      2.000000
  0.250000  0.000000  0.000000      2.000000
  0.250000  0.250000  0.000000      2.000000
  0.000000  0.250000  0.000000      2.000000
  0.333333  0.000000  0.000000      2.000000
  0.333333  0.333333  0.000000      2.000000
  0.000000  0.333333  0.000000      2.000000
  0.416667  0.000000  0.000000      2.000000
  0.416667  0.416667  0.000000      2.000000
  0.000000  0.416667  0.000000      2.000000
  0.500000  0.000000  0.000000      1.000000
  0.500000  0.500000  0.000000      1.000000
  0.000000  0.500000  0.000000      1.000000
  0.166667  0.083333  0.000000      2.000000
  0.083333  0.166667  0.000000      2.000000
 -0.083333  0.083333  0.000000      2.000000
  0.250000  0.083333  0.000000      2.000000
  0.166667  0.250000  0.000000      2.000000
 -0.083333  0.166667  0.000000      2.000000
  0.166667 -0.083333  0.000000      2.000000
 -0.083333 -0.250000  0.000000      2.000000
 -0.250000 -0.166667  0.000000      2.000000
  0.333333  0.083333  0.000000      2.000000
  0.250000  0.333333  0.000000      2.000000
 -0.083333  0.250000  0.000000      2.000000
  0.250000 -0.083333  0.000000      2.000000
 -0.083333 -0.333333  0.000000      2.000000
 -0.333333 -0.250000  0.000000      2.000000
  0.416667  0.083333  0.000000      2.000000
  0.333333  0.416667  0.000000      2.000000
 -0.083333  0.333333  0.000000      2.000000
  0.333333 -0.083333  0.000000      2.000000
 -0.083333 -0.416667  0.000000      2.000000
 -0.416667 -0.333333  0.000000      2.000000
  0.500000  0.083333  0.000000      2.000000
  0.416667  0.500000  0.000000      2.000000
 -0.083333  0.416667  0.000000      2.000000
  0.416667 -0.083333  0.000000      2.000000
 -0.083333  0.500000  0.000000      2.000000
  0.500000 -0.416667  0.000000      2.000000
  0.333333  0.166667  0.000000      2.000000
  0.166667  0.333333  0.000000      2.000000
 -0.166667  0.166667  0.000000      2.000000
  0.416667  0.166667  0.000000      2.000000
  0.250000  0.416667  0.000000      2.000000
 -0.166667  0.250000  0.000000      2.000000
  0.250000 -0.166667  0.000000      2.000000
 -0.166667 -0.416667  0.000000      2.000000
 -0.416667 -0.250000  0.000000      2.000000
  0.500000  0.166667  0.000000      2.000000
  0.333333  0.500000  0.000000      2.000000
 -0.166667  0.333333  0.000000      2.000000
  0.333333 -0.166667  0.000000      2.000000
 -0.166667  0.500000  0.000000      2.000000
[...]
 -0.166667  0.500000  0.500000      2.000000
  0.500000 -0.333333  0.500000      2.000000
 -0.416667  0.166667  0.500000      2.000000
  0.416667 -0.416667  0.500000      2.000000
 -0.166667  0.416667  0.500000      2.000000
  0.500000  0.250000  0.500000      2.000000
  0.250000  0.500000  0.500000      2.000000
 -0.250000  0.250000  0.500000      2.000000
 -0.416667  0.250000  0.500000      2.000000
  0.333333 -0.416667  0.500000      2.000000
 -0.250000  0.333333  0.500000      2.000000
  0.333333 -0.250000  0.500000      2.000000
 -0.250000  0.416667  0.500000      2.000000
  0.416667 -0.333333  0.500000      2.000000
 -0.333333  0.333333  0.500000      2.000000

 Following cartesian coordinates:
            Coordinates               Weight
  0.000000  0.000000  0.000000      1.000000
  0.023196 -0.013392  0.000000      2.000000
  0.023196  0.013392  0.000000      2.000000
  0.000000  0.026785  0.000000      2.000000
  0.046392 -0.026785  0.000000      2.000000
  0.046392  0.026785  0.000000      2.000000
  0.000000  0.053569  0.000000      2.000000
  0.069588 -0.040177  0.000000      2.000000
  0.069588  0.040177  0.000000      2.000000
  0.000000  0.080354  0.000000      2.000000
  0.092785 -0.053569  0.000000      2.000000
  0.092785  0.053569  0.000000      2.000000
  0.000000  0.107138  0.000000      2.000000
  0.115981 -0.066962  0.000000      2.000000
  0.115981  0.066962  0.000000      2.000000
  0.000000  0.133923  0.000000      2.000000
  0.139177 -0.080354  0.000000      1.000000
  0.139177  0.080354  0.000000      1.000000
  0.000000  0.160708  0.000000      1.000000
  0.046392  0.000000  0.000000      2.000000
  0.023196  0.040177  0.000000      2.000000
 -0.023196  0.040177  0.000000      2.000000
  0.069588 -0.013392  0.000000      2.000000
  0.046392  0.053569  0.000000      2.000000
 -0.023196  0.066962  0.000000      2.000000
  0.046392 -0.053569  0.000000      2.000000
 -0.023196 -0.066962  0.000000      2.000000
 -0.069588 -0.013392  0.000000      2.000000
  0.092785 -0.026785  0.000000      2.000000
  0.069588  0.066962  0.000000      2.000000
 -0.023196  0.093746  0.000000      2.000000
  0.069588 -0.066962  0.000000      2.000000
 -0.023196 -0.093746  0.000000      2.000000
 -0.092785 -0.026785  0.000000      2.000000
  0.115981 -0.040177  0.000000      2.000000
  0.092785  0.080354  0.000000      2.000000
 -0.023196  0.120531  0.000000      2.000000
  0.092785 -0.080354  0.000000      2.000000
 -0.023196 -0.120531  0.000000      2.000000
 -0.115981 -0.040177  0.000000      2.000000
  0.139177 -0.053569  0.000000      2.000000
  0.115981  0.093746  0.000000      2.000000
 -0.023196  0.147315  0.000000      2.000000
  0.115981 -0.093746  0.000000      2.000000
 -0.023196  0.174100  0.000000      2.000000
  0.139177 -0.214277  0.000000      2.000000
  0.092785 -0.000000  0.000000      2.000000
  0.046392  0.080354  0.000000      2.000000
 -0.046392  0.080354  0.000000      2.000000
  0.115981 -0.013392  0.000000      2.000000
  0.069588  0.093746  0.000000      2.000000
 -0.046392  0.107138  0.000000      2.000000
  0.069588 -0.093746  0.000000      2.000000
[...]
 k-point    10 :   0.0000 0.2500 0.0000  plane waves:    1554
 k-point    11 :   0.3333 0.0000 0.0000  plane waves:    1566
 k-point    12 :   0.3333 0.3333 0.0000  plane waves:    1566
 k-point    13 :   0.0000 0.3333 0.0000  plane waves:    1566
 k-point    14 :   0.4167 0.0000 0.0000  plane waves:    1538
 k-point    15 :   0.4167 0.4167 0.0000  plane waves:    1538
 k-point    16 :   0.0000 0.4167 0.0000  plane waves:    1538
 k-point    17 :   0.5000 0.0000 0.0000  plane waves:    1532
 k-point    18 :   0.5000 0.5000 0.0000  plane waves:    1532
 k-point    19 :   0.0000 0.5000 0.0000  plane waves:    1532
 k-point    20 :   0.1667 0.0833 0.0000  plane waves:    1534
 k-point    21 :   0.0833 0.1667 0.0000  plane waves:    1534
 k-point    22 :  -0.0833 0.0833 0.0000  plane waves:    1534
 k-point    23 :   0.2500 0.0833 0.0000  plane waves:    1548
 k-point    24 :   0.1667 0.2500 0.0000  plane waves:    1548
 k-point    25 :  -0.0833 0.1667 0.0000  plane waves:    1548
 k-point    26 :   0.1667-0.0833 0.0000  plane waves:    1548
 k-point    27 :  -0.0833-0.2500 0.0000  plane waves:    1548
 k-point    28 :  -0.2500-0.1667 0.0000  plane waves:    1548
 k-point    29 :   0.3333 0.0833 0.0000  plane waves:    1560
 k-point    30 :   0.2500 0.3333 0.0000  plane waves:    1560
 k-point    31 :  -0.0833 0.2500 0.0000  plane waves:    1560
 k-point    32 :   0.2500-0.0833 0.0000  plane waves:    1560
 k-point    33 :  -0.0833-0.3333 0.0000  plane waves:    1560
 k-point    34 :  -0.3333-0.2500 0.0000  plane waves:    1560
 k-point    35 :   0.4167 0.0833 0.0000  plane waves:    1550
 k-point    36 :   0.3333 0.4167 0.0000  plane waves:    1550
 k-point    37 :  -0.0833 0.3333 0.0000  plane waves:    1550
 k-point    38 :   0.3333-0.0833 0.0000  plane waves:    1550
 k-point    39 :  -0.0833-0.4167 0.0000  plane waves:    1550
 k-point    40 :  -0.4167-0.3333 0.0000  plane waves:    1550
 k-point    41 :   0.5000 0.0833 0.0000  plane waves:    1552
 k-point    42 :   0.4167 0.5000 0.0000  plane waves:    1552
 k-point    43 :  -0.0833 0.4167 0.0000  plane waves:    1552
 k-point    44 :   0.4167-0.0833 0.0000  plane waves:    1552
 k-point    45 :  -0.0833 0.5000 0.0000  plane waves:    1552
 k-point    46 :   0.5000-0.4167 0.0000  plane waves:    1552
 k-point    47 :   0.3333 0.1667 0.0000  plane waves:    1546
 k-point    48 :   0.1667 0.3333 0.0000  plane waves:    1546
 k-point    49 :  -0.1667 0.1667 0.0000  plane waves:    1546
 k-point    50 :   0.4167 0.1667 0.0000  plane waves:    1546
 k-point    51 :   0.2500 0.4167 0.0000  plane waves:    1546
 k-point    52 :  -0.1667 0.2500 0.0000  plane waves:    1546
 k-point    53 :   0.2500-0.1667 0.0000  plane waves:    1546
 k-point    54 :  -0.1667-0.4167 0.0000  plane waves:    1546
 k-point    55 :  -0.4167-0.2500 0.0000  plane waves:    1546
 k-point    56 :   0.5000 0.1667 0.0000  plane waves:    1544
 k-point    57 :   0.3333 0.5000 0.0000  plane waves:    1544
 k-point    58 :  -0.1667 0.3333 0.0000  plane waves:    1544
 k-point    59 :   0.3333-0.1667 0.0000  plane waves:    1544
 k-point    60 :  -0.1667 0.5000 0.0000  plane waves:    1544
[...]
 k-point   854 :  -0.1667 0.5000 0.5000  plane waves:    1580
 k-point   855 :   0.5000-0.3333 0.5000  plane waves:    1580
 k-point   856 :  -0.4167 0.1667 0.5000  plane waves:    1560
 k-point   857 :   0.4167-0.4167 0.5000  plane waves:    1560
 k-point   858 :  -0.1667 0.4167 0.5000  plane waves:    1560
 k-point   859 :   0.5000 0.2500 0.5000  plane waves:    1556
 k-point   860 :   0.2500 0.5000 0.5000  plane waves:    1556
 k-point   861 :  -0.2500 0.2500 0.5000  plane waves:    1556
 k-point   862 :  -0.4167 0.2500 0.5000  plane waves:    1568
 k-point   863 :   0.3333-0.4167 0.5000  plane waves:    1568
 k-point   864 :  -0.2500 0.3333 0.5000  plane waves:    1568
 k-point   865 :   0.3333-0.2500 0.5000  plane waves:    1568
 k-point   866 :  -0.2500 0.4167 0.5000  plane waves:    1568
 k-point   867 :   0.4167-0.3333 0.5000  plane waves:    1568
 k-point   868 :  -0.3333 0.3333 0.5000  plane waves:    1560

 maximum and minimum number of plane-waves per node :      1580     1516

 maximum number of plane-waves:      1580
 maximum index in each direction:
   IXMAX=    5   IYMAX=    5   IZMAX=    8
   IXMIN=   -5   IYMIN=   -5   IZMIN=   -8

 serial   3D FFT for wavefunctions
 parallel 3D FFT for charge:
    minimum data exchange during FFTs selected (reduces bandwidth)

 Broyden mixing: mesh for mixing (old mesh)
   NGX = 11   NGY = 11   NGZ = 17
  (NGX  = 32   NGY  = 32   NGZ  = 48)
  gives a total of   2057 points

 charge density for first step will be calculated from the start-wavefunctions

 Maximum index for augmentation-charges          315 (set IRDMAX)

 initial charge from wavefunction
 First call to EWALD:  gamma=   0.445
 Maximum number of real-space cells 3x 3x 2
 Maximum number of reciprocal cells 3x 3x 4

--------------------------------------- Ionic step        1  -------------------------------------------

--------------------------------------- Iteration      1(   1)  ---------------------------------------

 eigenvalue-minimisations  : 63216
 total energy-change (2. order) :-0.5044664E+01  (-0.2742491E-06)
 number of electron      25.9999888 magnetization      -0.0002207     -0.0002213     -0.0002131
 augmentation part       10.2254868 magnetization      -0.0000138     -0.0000138     -0.0000139

 Broyden mixing:
  rms(total) = 0.20270E-03    rms(broyden)= 0.20270E-03
  rms(prec ) = 0.25974E-03
  weight for this iteration     100.00

 Free energy of the ion-electron system (eV)
  alpha Z        PSCENC =        92.66983299
  Ewald energy   TEWEN  =     -2224.28454688
  -Hartree energ DENC   =      -663.03128836
  -exchange      EXHF   =         0.00000000
  -V(xc)+E(xc)   XCENC  =        50.72502777
  PAW double counting   =      2618.75720951    -2556.92797254
  entropy T*S    EENTRO =        -0.00158331
  eigenvalues    EBANDS =      -106.47211603
  atomic energy  EATOM  =      2783.52077241
  Solvation  Ediel_sol  =         0.00000000
  free energy    TOTEN  =        -5.04466444 eV

  energy without entropy =       -5.04308113  energy(sigma->0) =       -5.04387278

--------------------------------------- Iteration      1(   2)  ---------------------------------------

 eigenvalue-minimisations  : 52032
 total energy-change (2. order) :-0.1120875E-06  (-0.2263580E-07)
 number of electron      25.9999888 magnetization      -0.0002207     -0.0002213     -0.0002131
 augmentation part       10.2254868 magnetization      -0.0000138     -0.0000138     -0.0000139

 Free energy of the ion-electron system (eV)
  alpha Z        PSCENC =        92.66983299
  Ewald energy   TEWEN  =     -2224.28454688
  -Hartree energ DENC   =      -663.03647069
  -exchange      EXHF   =         0.00000000
  -V(xc)+E(xc)   XCENC  =        50.72522267
  PAW double counting   =      2618.76262746    -2556.93321081
  entropy T*S    EENTRO =        -0.00158331
  eigenvalues    EBANDS =      -106.46730841
  atomic energy  EATOM  =      2783.52077241
  Solvation  Ediel_sol  =         0.00000000
  free energy    TOTEN  =        -5.04466455 eV

  energy without entropy =       -5.04308124  energy(sigma->0) =       -5.04387290

 average (electrostatic) potential at core
  the test charge radii are     1.1488
  (the norm of the test charge is              1.0000)
       1 -83.9432       2 -83.9431

 E-fermi :   5.5008     XC(G=0):  -9.7003     alpha+bet :-10.7163

 val. band max:        5.4958874343   @ k =  -0.1667  -0.0833   0.2500
 cond. band min:       5.5028608245   @ k =   0.3333  -0.3333   0.3333
 fundamental gap:      0.0069733902
 Fermi energy:         5.5007657401

 k-point     1 :       0.0000    0.0000    0.0000
  band No.  band energies     occupation
      1      -7.0894      1.00000
      2      -7.0894      1.00000
      3      -7.0839      1.00000
      4      -7.0839      1.00000
      5      -7.0704      1.00000
      6      -7.0704      1.00000
      7      -7.0143      1.00000
      8      -7.0143      1.00000
      9      -4.9828      1.00000
     10      -4.9828      1.00000
     11      -4.9490      1.00000
     12      -4.9490      1.00000
     13      -4.9337      1.00000
     14      -4.9337      1.00000
     15      -4.9328      1.00000
     16      -4.9328      1.00000
     17      -4.9065      1.00000
     18      -4.9064      1.00000
     19      -4.6580      1.00000
     20      -4.6580      1.00000
     21      -3.8102      1.00000
     22      -3.8100      1.00000
     23       0.6178      1.00000
     24       0.6179      1.00000
     25       3.1159      1.00000
     26       3.1161      1.00000
     27      11.9303      0.00000
     28      11.9304      0.00000
     29      13.1717      0.00000
     30      13.1718      0.00000
     31      13.4134      0.00000
     32      13.4134      0.00000
     33      15.2982      0.00000
     34      15.2983      0.00000
     35      15.5353      0.00000
     36      15.5357      0.00000
     37      15.6510      0.00000
     38      15.6513      0.00000
     39      16.4094      0.00000
     40      16.4095      0.00000
     41      18.1072      0.00000
     42      18.1074      0.00000
     43      19.3806      0.00000
     44      19.3807      0.00000
     45      19.5100      0.00000
     46      19.5101      0.00000
     47      19.6706      0.00000
     48      19.6708      0.00000

[...]

 k-point   868 :      -0.3333    0.3333    0.5000
  band No.  band energies     occupation
      1      -7.0657      1.00000
      2      -7.0657      1.00000
      3      -7.0569      1.00000
      4      -7.0569      1.00000
      5      -7.0109      1.00000
      6      -7.0109      1.00000
      7      -6.9795      1.00000
      8      -6.9795      1.00000
      9      -5.0530      1.00000
     10      -5.0530      1.00000
     11      -4.9211      1.00000
     12      -4.9211      1.00000
     13      -4.8373      1.00000
     14      -4.8373      1.00000
     15      -4.8208      1.00000
     16      -4.8208      1.00000
     17      -4.8057      1.00000
     18      -4.8057      1.00000
     19      -4.6903      1.00000
     20      -4.6903      1.00000
     21       1.3070      1.00000
     22       1.3070      1.00000
     23       1.3312      1.00000
     24       1.3313      1.00000
     25       4.4796      1.00000
     26       4.4797      1.00000
     27       4.8656      1.00000
     28       4.8657      1.00000
     29       5.6400      0.00004
     30       5.6400      0.00004
     31       6.1712      0.00000
     32       6.1714      0.00000
     33      12.6069      0.00000
     34      12.6070      0.00000
     35      12.9639      0.00000
     36      12.9640      0.00000
     37      16.1940      0.00000
     38      16.1942      0.00000
     39      16.3118      0.00000
     40      16.3119      0.00000
     41      16.7139      0.00000
     42      16.7140      0.00000
     43      16.8174      0.00000
     44      16.8175      0.00000
     45      21.0882      0.00000
     46      21.0883      0.00000
     47      21.2775      0.00000
     48      21.2826      0.00000

 soft charge-density along one line, spin component           1
         0         1         2         3         4         5         6         7         8         9
 total charge-density along one line

[...]

 soft charge-density along one line, spin component           4
         0         1         2         3         4         5         6         7         8         9
 total charge-density along one line

------------------------ aborting loop because EDIFF is reached ----------------------------------------

  FORCE on cell =-STRESS in cart. coord.  units (eV):
  Direction    XX          YY          ZZ          XY          YZ          ZX
  Alpha Z    92.66983    92.66983    92.66983
  Ewald    -753.28208  -753.28208  -717.72192    -0.00000     0.00000     0.00000
  Hartree   213.88881   213.88851   235.26378     0.00027     0.00000     0.00000
  E(xc)    -123.69435  -123.69437  -123.63425     0.00002    -0.00000    -0.00000
  Local      -7.82468    -7.82387   -64.85094    -0.00071    -0.00000    -0.00000
  n-local    76.19704    76.19693    76.50367     0.00010     0.00000     0.00000
  augment   200.98038   200.98043   200.92462    -0.00006    -0.00000    -0.00000
  Kinetic   300.69370   300.69412   300.42755    -0.00036    -0.00000    -0.00000
  Fock        0.00000     0.00000     0.00000     0.00000     0.00000     0.00000
  Total      -0.37136    -0.37052    -0.41767    -0.00075    -0.00001    -0.00001
  in kB      -9.43495    -9.41354   -10.61143    -0.01894    -0.00014    -0.00014

 VOLUME and BASIS-vectors are now :
  energy-cutoff  :      308.17
  volume of cell :       63.06
      direct lattice vectors                 reciprocal lattice vectors
     3.592550000  0.000000000  0.000000000     0.278353816 -0.160707650  0.000000000
     1.796275000  3.111239564  0.000000000     0.000000000  0.321415301  0.000000000
     0.000000000  0.000000000  5.641950000    -0.000000000 -0.000000000  0.177243683

  length of vectors
     3.592550000  3.592550000  5.641950000     0.321415301  0.321415301  0.177243683

 FORCES acting on ions
    electron-ion (+dipol)            ewald-force                    non-local-force                 convergence-correction
   -.147E-06 -.731E-06 -.294E-05   0.124E-11 0.717E-12 -.191E-13   -.228E-06 0.141E-05 0.124E-06   0.507E-05 0.212E-05 0.282E-05
   -.209E-05 -.561E-06 0.294E-05   -.125E-11 -.715E-12 0.191E-13   0.228E-06 -.141E-05 -.124E-06   -.507E-05 -.212E-05 -.282E-05
   -.224E-05 -.129E-05 0.273E-11   -.338E-14 0.202E-14 -.416E-17   -.278E-20 -.212E-21 -.529E-22   -.224E-11 -.215E-11 -.278E-12

 POSITION                                       TOTAL-FORCE (eV/Angst)
      0.00000      0.00000      0.00000         0.000006      0.000003      0.000000
      1.79628      1.03708      2.82097        -0.000006     -0.000003     -0.000000
    total drift:                               -0.000002     -0.000001      0.000000

  FREE ENERGIE OF THE ION-ELECTRON SYSTEM (eV)
  free  energy   TOTEN  =        -5.04466455 eV

  energy  without entropy=       -5.04308124  energy(sigma->0) =       -5.04387290

 writing wavefunctions

 Spin-Orbit-Coupling matrix elements

 Ion:    1  E_soc:     -0.6138345
 l=   1
     0.0000000    -0.0539377    -0.0526744
    -0.0539377     0.0000000    -0.0539377
    -0.0526744    -0.0539377     0.0000000
 l=   2
     0.0000000    -0.0097425     0.0000000    -0.0097425    -0.0390635
    -0.0097425     0.0000000    -0.0292513    -0.0098317    -0.0097425
     0.0000000    -0.0292513     0.0000000    -0.0292511     0.0000000
    -0.0097425    -0.0098317    -0.0292511     0.0000000    -0.0097423
    -0.0390635    -0.0097425     0.0000000    -0.0097423     0.0000000
 l=   3
     0.0000000     0.0000000     0.0000000     0.0000000     0.0000000     0.0000000     0.0000000
     0.0000000     0.0000000     0.0000000     0.0000000     0.0000000     0.0000000     0.0000000
     0.0000000     0.0000000     0.0000000     0.0000000     0.0000000     0.0000000     0.0000000
     0.0000000     0.0000000     0.0000000     0.0000000     0.0000000     0.0000000     0.0000000
     0.0000000     0.0000000     0.0000000     0.0000000     0.0000000     0.0000000     0.0000000
     0.0000000     0.0000000     0.0000000     0.0000000     0.0000000     0.0000000     0.0000000
     0.0000000     0.0000000     0.0000000     0.0000000     0.0000000     0.0000000     0.0000000

 Ion:    2  E_soc:     -0.6138345
 l=   1
     0.0000000    -0.0539377    -0.0526744
    -0.0539377     0.0000000    -0.0539377
    -0.0526744    -0.0539377     0.0000000
 l=   2
     0.0000000    -0.0097425     0.0000000    -0.0097425    -0.0390635
    -0.0097425     0.0000000    -0.0292513    -0.0098317    -0.0097425
     0.0000000    -0.0292513     0.0000000    -0.0292511     0.0000000
    -0.0097425    -0.0098317    -0.0292511     0.0000000    -0.0097423
    -0.0390635    -0.0097425     0.0000000    -0.0097423     0.0000000
 l=   3
     0.0000000     0.0000000     0.0000000     0.0000000     0.0000000     0.0000000     0.0000000
     0.0000000     0.0000000     0.0000000     0.0000000     0.0000000     0.0000000     0.0000000
     0.0000000     0.0000000     0.0000000     0.0000000     0.0000000     0.0000000     0.0000000
     0.0000000     0.0000000     0.0000000     0.0000000     0.0000000     0.0000000     0.0000000
     0.0000000     0.0000000     0.0000000     0.0000000     0.0000000     0.0000000     0.0000000
     0.0000000     0.0000000     0.0000000     0.0000000     0.0000000     0.0000000     0.0000000
     0.0000000     0.0000000     0.0000000     0.0000000     0.0000000     0.0000000     0.0000000